@relation dataset

@attribute ID numeric
@attribute Time date 'yyyy/MM/dd HH:mm:ss:SSS'
@attribute 'Training round' numeric
@attribute inputs-1 numeric
@attribute inputs-2 numeric
@attribute inputs-3 numeric
@attribute outputs-1 numeric
@attribute outputs-2 numeric
@attribute outputs-3 numeric

@data
1,'2026/05/31 15:54:38:228',1,0.08743,0.573555,0.987649,0,0.5,1
2,'2026/05/31 15:54:38:301',1,0.087137,0.573751,0.987962,0,0.5,1
3,'2026/05/31 15:54:38:302',1,0.08773,0.573949,0.985166,0,0.5,1
4,'2026/05/31 15:54:38:319',1,0.088387,0.573183,1,0,0.5,1
5,'2026/05/31 15:54:38:356',1,0.088356,0.575058,0.99409,0,0.5,1
6,'2026/05/31 15:54:38:386',1,0.087913,0.57509,0.99499,0,0.5,1
7,'2026/05/31 15:54:38:420',1,0.088064,0.574677,0.99567,0,0.5,1
8,'2026/05/31 15:54:38:458',1,0.087629,0.575136,0.993537,0,0.5,1
9,'2026/05/31 15:54:38:489',1,0.087053,0.574483,0.997179,0,0.5,1
10,'2026/05/31 15:54:38:521',1,0.086858,0.572772,1,0,0.5,1
11,'2026/05/31 15:54:38:558',1,0.086304,0.572481,1,0,0.5,1
12,'2026/05/31 15:54:38:588',1,0.085631,0.571972,1,0,0.5,1
13,'2026/05/31 15:54:38:620',1,0.085578,0.571414,1,0,0.5,1
14,'2026/05/31 15:54:38:655',1,0.085313,0.571547,0.997339,0,0.5,1
15,'2026/05/31 15:54:38:687',1,0.085169,0.572045,1,0,0.5,1
16,'2026/05/31 15:54:38:721',1,0.085722,0.572041,0.999182,0,0.5,1
17,'2026/05/31 15:54:38:754',1,0.086233,0.572174,0.995989,0,0.5,1
18,'2026/05/31 15:54:38:787',1,0.086555,0.573284,0.989845,0,0.5,1
19,'2026/05/31 15:54:38:819',1,0.087362,0.574038,0.997546,0,0.5,1
20,'2026/05/31 15:54:38:853',1,0.088728,0.573861,0.998856,0,0.5,1
21,'2026/05/31 15:54:38:887',1,0.089696,0.575179,0.987793,0,0.5,1
22,'2026/05/31 15:54:38:920',1,0.090644,0.575869,0.98931,0,0.5,1
23,'2026/05/31 15:54:38:952',1,0.092809,0.576628,0.977131,0,0.5,1
24,'2026/05/31 15:54:38:986',1,0.094924,0.576911,0.963427,0,0.5,1
25,'2026/05/31 15:54:39:020',1,0.096834,0.576496,0.952151,0,0.5,1
26,'2026/05/31 15:54:39:052',1,0.098576,0.575794,0.939679,0,0.5,1
27,'2026/05/31 15:54:39:086',1,0.09964,0.573924,0.938458,0,0.5,1
28,'2026/05/31 15:54:39:120',1,0.10104,0.572622,0.93973,0,0.5,1
29,'2026/05/31 15:54:39:153',1,0.10158,0.572278,0.929556,0,0.5,1
30,'2026/05/31 15:54:39:186',1,0.101121,0.571792,0.928844,0,0.5,1
31,'2026/05/31 15:54:39:220',1,0.102471,0.570958,0.926068,0,0.5,1
32,'2026/05/31 15:54:39:253',1,0.103671,0.569179,0.936714,0,0.5,1
33,'2026/05/31 15:54:39:286',1,0.10454,0.568602,0.94086,0,0.5,1
34,'2026/05/31 15:54:39:320',1,0.10615,0.567333,0.941636,0,0.5,1
35,'2026/05/31 15:54:39:353',1,0.106025,0.567076,0.943345,0,0.5,1
36,'2026/05/31 15:54:39:386',1,0.107168,0.567018,0.954329,0,0.5,1
37,'2026/05/31 15:54:39:419',1,0.108842,0.567155,0.952955,0,0.5,1
38,'2026/05/31 15:54:39:452',1,0.109679,0.567422,0.948183,0,0.5,1
39,'2026/05/31 15:54:39:487',1,0.110677,0.567141,0.953398,0,0.5,1
40,'2026/05/31 15:54:39:519',1,0.111625,0.566805,0.956689,0,0.5,1
41,'2026/05/31 15:54:39:554',1,0.11243,0.566664,0.95222,0,0.5,1
42,'2026/05/31 15:54:39:587',1,0.112994,0.566869,0.949647,0,0.5,1
43,'2026/05/31 15:54:39:620',1,0.113322,0.56728,0.946413,0,0.5,1
44,'2026/05/31 15:54:39:653',1,0.113493,0.567278,0.951649,0,0.5,1
45,'2026/05/31 15:54:39:686',1,0.113837,0.566861,0.959657,0,0.5,1
46,'2026/05/31 15:54:39:720',1,0.114401,0.566761,0.962779,0,0.5,1
47,'2026/05/31 15:54:39:753',1,0.11514,0.566376,0.964714,0,0.5,1
48,'2026/05/31 15:54:39:785',1,0.116397,0.565604,0.970423,0,0.5,1
49,'2026/05/31 15:54:39:820',1,0.117948,0.565237,0.971271,0,0.5,1
50,'2026/05/31 15:54:39:856',1,0.119328,0.565122,0.969375,0,0.5,1
51,'2026/05/31 15:54:39:891',1,0.121655,0.564478,0.980049,0,0.5,1
52,'2026/05/31 15:54:39:922',1,0.123085,0.564387,0.982552,0,0.5,1
53,'2026/05/31 15:54:39:957',1,0.125059,0.56449,0.98189,0,0.5,1
54,'2026/05/31 15:54:39:989',1,0.126516,0.564168,0.986729,0,0.5,1
55,'2026/05/31 15:54:40:024',1,0.127555,0.564117,0.991433,0,0.5,1
56,'2026/05/31 15:54:40:056',1,0.128688,0.563796,0.989953,0,0.5,1
57,'2026/05/31 15:54:40:089',1,0.129697,0.563028,0.98944,0,0.5,1
58,'2026/05/31 15:54:40:124',1,0.130597,0.562283,0.988626,0,0.5,1
59,'2026/05/31 15:54:40:155',1,0.131289,0.561476,0.987724,0,0.5,1
60,'2026/05/31 15:54:40:190',1,0.13206,0.560979,0.987572,0,0.5,1
61,'2026/05/31 15:54:40:222',1,0.13319,0.560946,0.992008,0,0.5,1
62,'2026/05/31 15:54:40:256',1,0.13382,0.561101,0.991272,0,0.5,1
63,'2026/05/31 15:54:40:289',1,0.134564,0.561592,0.997016,0,0.5,1
64,'2026/05/31 15:54:40:324',1,0.135377,0.562123,0.994681,0,0.5,1
65,'2026/05/31 15:54:40:356',1,0.136687,0.562371,0.99322,0,0.5,1
66,'2026/05/31 15:54:40:390',1,0.137358,0.562983,0.983126,0,0.5,1
67,'2026/05/31 15:54:40:424',1,0.137735,0.56345,0.979553,0,0.5,1
68,'2026/05/31 15:54:40:456',1,0.138213,0.56303,0.985666,0,0.5,1
69,'2026/05/31 15:54:40:490',1,0.138629,0.563042,0.98683,0,0.5,1
70,'2026/05/31 15:54:40:523',1,0.138629,0.56406,0.973445,0,0.5,1
71,'2026/05/31 15:54:40:557',1,0.13897,0.563383,0.978492,0,0.5,1
72,'2026/05/31 15:54:40:590',1,0.139283,0.562824,0.98234,0,0.5,1
73,'2026/05/31 15:54:40:620',1,0.139218,0.563504,0.977744,0,0.5,1
74,'2026/05/31 15:54:40:656',1,0.139442,0.562831,0.984386,0,0.5,1
75,'2026/05/31 15:54:40:688',1,0.13948,0.562084,0.986364,0,0.5,1
76,'2026/05/31 15:54:40:723',1,0.139627,0.561876,0.983253,0,0.5,1
77,'2026/05/31 15:54:40:754',1,0.140012,0.561185,0.985785,0,0.5,1
78,'2026/05/31 15:54:40:788',1,0.14019,0.561357,0.982103,0,0.5,1
79,'2026/05/31 15:54:40:823',1,0.140548,0.5611,0.983012,0,0.5,1
80,'2026/05/31 15:54:40:854',1,0.140885,0.561372,0.976443,0,0.5,1
81,'2026/05/31 15:54:40:888',1,0.140938,0.561369,0.981927,0,0.5,1
82,'2026/05/31 15:54:40:918',1,0.140797,0.561215,0.983698,0,0.5,1
83,'2026/05/31 15:54:40:951',1,0.140439,0.561437,0.981765,0,0.5,1
84,'2026/05/31 15:54:40:985',1,0.140221,0.561058,0.984179,0,0.5,1
85,'2026/05/31 15:54:41:019',1,0.140107,0.561227,0.978219,0,0.5,1
86,'2026/05/31 15:54:41:052',1,0.139631,0.561497,0.977841,0,0.5,1
87,'2026/05/31 15:54:41:085',1,0.139244,0.561715,0.977447,0,0.5,1
88,'2026/05/31 15:54:41:119',1,0.138808,0.561891,0.976065,0,0.5,1
89,'2026/05/31 15:54:41:152',1,0.138396,0.561385,0.981971,0,0.5,1
90,'2026/05/31 15:54:41:185',1,0.138072,0.561172,0.979625,0,0.5,1
91,'2026/05/31 15:54:41:219',1,0.138127,0.560319,0.974432,0,0.5,1
92,'2026/05/31 15:54:41:252',1,0.137966,0.559887,0.971139,0,0.5,1
93,'2026/05/31 15:54:41:289',1,0.137387,0.559585,0.969198,0,0.5,1
94,'2026/05/31 15:54:41:322',1,0.13726,0.558749,0.973388,0,0.5,1
95,'2026/05/31 15:54:41:354',1,0.13808,0.557465,0.982332,0,0.5,1
96,'2026/05/31 15:54:41:387',1,0.138992,0.557695,0.979765,0,0.5,1
97,'2026/05/31 15:54:41:421',1,0.139972,0.557588,0.979761,0,0.5,1
98,'2026/05/31 15:54:41:455',1,0.140896,0.557272,0.982412,0,0.5,1
99,'2026/05/31 15:54:41:491',1,0.141911,0.557752,0.976398,0,0.5,1
100,'2026/05/31 15:54:41:522',1,0.14207,0.55829,0.975121,0,0.5,1
101,'2026/05/31 15:54:41:554',1,0.142502,0.55868,0.973868,0,0.5,1
102,'2026/05/31 15:54:41:589',1,0.142735,0.559004,0.965715,0,0.5,1
103,'2026/05/31 15:54:41:623',1,0.142331,0.558702,0.96991,0,0.5,1
104,'2026/05/31 15:54:41:657',1,0.141968,0.557933,0.973753,0,0.5,1
105,'2026/05/31 15:54:41:688',1,0.14148,0.556326,0.974088,0,0.5,1
106,'2026/05/31 15:54:41:723',1,0.141803,0.554887,0.968131,0,0.5,1
107,'2026/05/31 15:54:41:755',1,0.142118,0.553621,0.969666,0,0.5,1
108,'2026/05/31 15:54:41:790',1,0.142035,0.552639,0.963016,0,0.5,1
109,'2026/05/31 15:54:41:823',1,0.141938,0.55164,0.969045,0,0.5,1
110,'2026/05/31 15:54:41:856',1,0.141627,0.550515,0.979534,0,0.5,1
111,'2026/05/31 15:54:41:890',1,0.141713,0.549846,0.984491,0,0.5,1
112,'2026/05/31 15:54:41:923',1,0.141614,0.549363,0.985624,0,0.5,1
113,'2026/05/31 15:54:41:957',1,0.141847,0.548502,0.98586,0,0.5,1
114,'2026/05/31 15:54:41:988',1,0.141678,0.547779,0.983665,0,0.5,1
115,'2026/05/31 15:54:42:023',1,0.14121,0.547982,0.971965,0,0.5,1
116,'2026/05/31 15:54:42:053',1,0.140553,0.547252,0.963871,0,0.5,1
117,'2026/05/31 15:54:42:087',1,0.140329,0.546508,0.961781,0,0.5,1
118,'2026/05/31 15:54:42:125',1,0.139587,0.545986,0.964448,0,0.5,1
119,'2026/05/31 15:54:42:155',1,0.139056,0.545922,0.965359,0,0.5,1
120,'2026/05/31 15:54:42:191',1,0.138808,0.545332,0.975966,0,0.5,1
121,'2026/05/31 15:54:42:223',1,0.138169,0.545026,0.977807,0,0.5,1
122,'2026/05/31 15:54:42:256',1,0.137718,0.544933,0.984386,0,0.5,1
123,'2026/05/31 15:54:42:286',1,0.137585,0.544693,0.986757,0,0.5,1
124,'2026/05/31 15:54:42:325',1,0.136842,0.545196,0.978065,0,0.5,1
125,'2026/05/31 15:54:42:356',1,0.136496,0.544965,0.984006,0,0.5,1
126,'2026/05/31 15:54:42:390',1,0.135765,0.545056,0.974805,0,0.5,1
127,'2026/05/31 15:54:42:424',1,0.13527,0.545129,0.97389,0,0.5,1
128,'2026/05/31 15:54:42:456',1,0.135292,0.544534,0.97489,0,0.5,1
129,'2026/05/31 15:54:42:489',1,0.135074,0.544592,0.975337,0,0.5,1
130,'2026/05/31 15:54:42:523',1,0.134747,0.54485,0.971129,0,0.5,1
131,'2026/05/31 15:54:42:557',1,0.135015,0.544646,0.970171,0,0.5,1
132,'2026/05/31 15:54:42:591',1,0.134627,0.545179,0.963295,0,0.5,1
133,'2026/05/31 15:54:42:622',1,0.13497,0.545084,0.965926,0,0.5,1
134,'2026/05/31 15:54:42:656',1,0.134882,0.545639,0.961103,0,0.5,1
135,'2026/05/31 15:54:42:688',1,0.134262,0.545601,0.965907,0,0.5,1
136,'2026/05/31 15:54:42:722',1,0.134554,0.545739,0.964576,0,0.5,1
137,'2026/05/31 15:54:42:755',1,0.134434,0.546339,0.957558,0,0.5,1
138,'2026/05/31 15:54:42:788',1,0.134501,0.546359,0.954681,0,0.5,1
139,'2026/05/31 15:54:42:823',1,0.134455,0.546347,0.957675,0,0.5,1
140,'2026/05/31 15:54:42:854',1,0.134536,0.546236,0.956844,0,0.5,1
141,'2026/05/31 15:54:42:889',1,0.134468,0.546354,0.960744,0,0.5,1
142,'2026/05/31 15:54:42:923',1,0.134722,0.546627,0.959677,0,0.5,1
143,'2026/05/31 15:54:42:956',1,0.135,0.546797,0.958445,0,0.5,1
144,'2026/05/31 15:54:42:989',1,0.135134,0.546687,0.959174,0,0.5,1
145,'2026/05/31 15:54:43:024',1,0.135239,0.546955,0.955449,0,0.5,1
146,'2026/05/31 15:54:43:056',1,0.13535,0.546493,0.960262,0,0.5,1
147,'2026/05/31 15:54:43:088',1,0.135294,0.54657,0.958036,0,0.5,1
148,'2026/05/31 15:54:43:123',1,0.135271,0.54669,0.956719,0,0.5,1
149,'2026/05/31 15:54:43:154',1,0.134987,0.546826,0.957881,0,0.5,1
150,'2026/05/31 15:54:43:189',1,0.134943,0.546819,0.963612,0,0.5,1
151,'2026/05/31 15:54:43:222',1,0.135231,0.54697,0.96478,0,0.5,1
152,'2026/05/31 15:54:43:255',1,0.13518,0.547585,0.962447,0,0.5,1
153,'2026/05/31 15:54:43:289',1,0.135483,0.5476,0.967038,0,0.5,1
154,'2026/05/31 15:54:43:322',1,0.135881,0.54783,0.967549,0,0.5,1
155,'2026/05/31 15:54:43:356',1,0.136283,0.547844,0.970522,0,0.5,1
156,'2026/05/31 15:54:43:388',1,0.136408,0.548486,0.964124,0,0.5,1
157,'2026/05/31 15:54:43:419',1,0.136301,0.548266,0.967175,0,0.5,1
158,'2026/05/31 15:54:43:455',1,0.136529,0.548338,0.966715,0,0.5,1
159,'2026/05/31 15:54:43:489',1,0.136326,0.548259,0.969973,0,0.5,1
160,'2026/05/31 15:54:43:522',1,0.13647,0.548551,0.970005,0,0.5,1
161,'2026/05/31 15:54:43:555',1,0.136482,0.548608,0.971088,0,0.5,1
162,'2026/05/31 15:54:43:590',1,0.136522,0.548812,0.971076,0,0.5,1
163,'2026/05/31 15:54:43:619',1,0.137087,0.548931,0.964572,0,0.5,1
164,'2026/05/31 15:54:43:655',1,0.136727,0.548949,0.956532,0,0.5,1
165,'2026/05/31 15:54:43:687',1,0.136602,0.548494,0.964858,0,0.5,1
166,'2026/05/31 15:54:43:721',1,0.136359,0.548551,0.964761,0,0.5,1
167,'2026/05/31 15:54:43:755',1,0.136299,0.548441,0.962065,0,0.5,1
168,'2026/05/31 15:54:43:790',1,0.136297,0.548575,0.962534,0,0.5,1
169,'2026/05/31 15:54:43:822',1,0.136779,0.548523,0.964719,0,0.5,1
170,'2026/05/31 15:54:43:856',1,0.136745,0.54856,0.962078,0,0.5,1
171,'2026/05/31 15:54:43:890',1,0.136749,0.548329,0.96724,0,0.5,1
172,'2026/05/31 15:54:43:922',1,0.13659,0.548646,0.962304,0,0.5,1
173,'2026/05/31 15:54:43:958',1,0.136416,0.548846,0.953522,0,0.5,1
174,'2026/05/31 15:54:43:988',1,0.136242,0.549141,0.951731,0,0.5,1
175,'2026/05/31 15:54:44:023',1,0.13605,0.548756,0.953619,0,0.5,1
176,'2026/05/31 15:54:44:057',1,0.13596,0.549079,0.952037,0,0.5,1
177,'2026/05/31 15:54:44:089',1,0.135895,0.548726,0.95651,0,0.5,1
178,'2026/05/31 15:54:44:124',1,0.135917,0.548889,0.956604,0,0.5,1
179,'2026/05/31 15:54:44:156',1,0.135946,0.548826,0.958357,0,0.5,1
180,'2026/05/31 15:54:44:191',1,0.135924,0.549129,0.954565,0,0.5,1
181,'2026/05/31 15:54:44:221',1,0.135808,0.549585,0.956257,0,0.5,1
182,'2026/05/31 15:54:44:257',1,0.135812,0.5498,0.954369,0,0.5,1
183,'2026/05/31 15:54:44:288',1,0.135646,0.549922,0.954605,0,0.5,1
184,'2026/05/31 15:54:44:319',1,0.135384,0.550148,0.954035,0,0.5,1
185,'2026/05/31 15:54:44:352',1,0.134876,0.550229,0.958985,0,0.5,1
186,'2026/05/31 15:54:44:386',1,0.135435,0.550714,0.950984,0,0.5,1
187,'2026/05/31 15:54:44:420',1,0.135453,0.551055,0.954091,0,0.5,1
188,'2026/05/31 15:54:44:453',1,0.135963,0.551355,0.96054,0,0.5,1
189,'2026/05/31 15:54:44:488',1,0.135569,0.551912,0.963084,0,0.5,1
190,'2026/05/31 15:54:44:520',1,0.135647,0.55216,0.965945,0,0.5,1
191,'2026/05/31 15:54:44:555',1,0.135441,0.552778,0.961194,0,0.5,1
192,'2026/05/31 15:54:44:586',1,0.134834,0.552655,0.968952,0,0.5,1
193,'2026/05/31 15:54:44:624',1,0.134128,0.553094,0.960926,0,0.5,1
194,'2026/05/31 15:54:44:657',1,0.133534,0.553241,0.965044,0,0.5,1
195,'2026/05/31 15:54:44:688',1,0.132748,0.553669,0.959773,0,0.5,1
196,'2026/05/31 15:54:44:723',1,0.132005,0.55375,0.955886,0,0.5,1
197,'2026/05/31 15:54:44:756',1,0.131443,0.553651,0.956598,0,0.5,1
198,'2026/05/31 15:54:44:788',1,0.130437,0.553664,0.9524,0,0.5,1
199,'2026/05/31 15:54:44:823',1,0.1296,0.553037,0.955634,0,0.5,1
200,'2026/05/31 15:54:44:856',1,0.128781,0.553195,0.954546,0,0.5,1
201,'2026/05/31 15:54:44:892',1,0.127612,0.553577,0.953798,0,0.5,1
202,'2026/05/31 15:54:44:922',1,0.126166,0.553762,0.947718,0,0.5,1
203,'2026/05/31 15:54:44:957',1,0.124589,0.553541,0.946665,0,0.5,1
204,'2026/05/31 15:54:44:988',1,0.122338,0.553351,0.940204,0,0.5,1
205,'2026/05/31 15:54:45:024',1,0.120387,0.553418,0.935922,0,0.5,1
206,'2026/05/31 15:54:45:057',1,0.11979,0.552843,0.940431,0,0.5,1
207,'2026/05/31 15:54:45:090',1,0.118725,0.553286,0.92818,0,0.5,1
208,'2026/05/31 15:54:45:125',1,0.118063,0.553002,0.931149,0,0.5,1
209,'2026/05/31 15:54:45:155',1,0.116973,0.552865,0.928143,0,0.5,1
210,'2026/05/31 15:54:45:191',1,0.115836,0.552624,0.928461,0,0.5,1
211,'2026/05/31 15:54:45:222',1,0.115392,0.552271,0.930624,0,0.5,1
212,'2026/05/31 15:54:45:255',1,0.114913,0.551969,0.926292,0,0.5,1
213,'2026/05/31 15:54:45:290',1,0.114141,0.552231,0.920583,0,0.5,1
214,'2026/05/31 15:54:45:323',1,0.114026,0.551818,0.923432,0,0.5,1
215,'2026/05/31 15:54:45:358',1,0.1139,0.552494,0.916111,0,0.5,1
216,'2026/05/31 15:54:45:389',1,0.113587,0.552857,0.913259,0,0.5,1
217,'2026/05/31 15:54:45:425',1,0.112822,0.552451,0.916242,0,0.5,1
218,'2026/05/31 15:54:45:454',1,0.113091,0.552176,0.91495,0,0.5,1
219,'2026/05/31 15:54:45:488',1,0.11283,0.552445,0.914049,0,0.5,1
220,'2026/05/31 15:54:45:522',1,0.112762,0.552541,0.914181,0,0.5,1
221,'2026/05/31 15:54:45:558',1,0.112664,0.552292,0.922194,0,0.5,1
222,'2026/05/31 15:54:45:590',1,0.112673,0.55253,0.922072,0,0.5,1
223,'2026/05/31 15:54:45:624',1,0.112607,0.552788,0.920163,0,0.5,1
224,'2026/05/31 15:54:45:658',1,0.11251,0.552398,0.923694,0,0.5,1
225,'2026/05/31 15:54:45:689',1,0.112782,0.552568,0.923459,0,0.5,1
226,'2026/05/31 15:54:45:725',1,0.112887,0.552838,0.920646,0,0.5,1
227,'2026/05/31 15:54:45:754',1,0.112941,0.552503,0.925024,0,0.5,1
228,'2026/05/31 15:54:45:791',1,0.113085,0.552653,0.925667,0,0.5,1
229,'2026/05/31 15:54:45:821',1,0.113361,0.55267,0.922861,0,0.5,1
230,'2026/05/31 15:54:45:855',1,0.11344,0.553132,0.912783,0,0.5,1
231,'2026/05/31 15:54:45:890',1,0.113343,0.55268,0.920189,0,0.5,1
232,'2026/05/31 15:54:45:922',1,0.113256,0.552646,0.918137,0,0.5,1
233,'2026/05/31 15:54:45:957',1,0.113502,0.55231,0.923574,0,0.5,1
234,'2026/05/31 15:54:45:989',1,0.114373,0.551628,0.931018,0,0.5,1
235,'2026/05/31 15:54:46:024',1,0.114847,0.552637,0.922881,0,0.5,1
236,'2026/05/31 15:54:46:056',1,0.115058,0.552964,0.918933,0,0.5,1
237,'2026/05/31 15:54:46:089',1,0.115127,0.552942,0.919107,0,0.5,1
238,'2026/05/31 15:54:46:125',1,0.115467,0.553141,0.920302,0,0.5,1
239,'2026/05/31 15:54:46:156',1,0.115491,0.553005,0.925634,0,0.5,1
240,'2026/05/31 15:54:46:191',1,0.11566,0.553166,0.924682,0,0.5,1
241,'2026/05/31 15:54:46:221',1,0.115331,0.553599,0.919892,0,0.5,1
242,'2026/05/31 15:54:46:258',1,0.115771,0.55273,0.925409,0,0.5,1
243,'2026/05/31 15:54:46:289',1,0.116217,0.553227,0.924935,0,0.5,1
244,'2026/05/31 15:54:46:322',1,0.116183,0.553849,0.922838,0,0.5,1
245,'2026/05/31 15:54:46:357',1,0.116135,0.554745,0.91207,0,0.5,1
246,'2026/05/31 15:54:46:389',1,0.116029,0.55514,0.917095,0,0.5,1
247,'2026/05/31 15:54:46:424',1,0.115981,0.555165,0.919385,0,0.5,1
248,'2026/05/31 15:54:46:455',1,0.115323,0.555431,0.915061,0,0.5,1
249,'2026/05/31 15:54:46:491',1,0.115009,0.555136,0.916418,0,0.5,1
250,'2026/05/31 15:54:46:522',1,0.114604,0.554894,0.91432,0,0.5,1
251,'2026/05/31 15:54:46:557',1,0.114664,0.554517,0.916759,0,0.5,1
252,'2026/05/31 15:54:46:589',1,0.114638,0.554439,0.911391,0,0.5,1
253,'2026/05/31 15:54:46:626',1,0.114289,0.554804,0.908154,0,0.5,1
254,'2026/05/31 15:54:46:657',1,0.114198,0.554437,0.910067,0,0.5,1
255,'2026/05/31 15:54:46:691',1,0.114105,0.554401,0.911494,0,0.5,1
256,'2026/05/31 15:54:46:723',1,0.113879,0.554763,0.909913,0,0.5,1
257,'2026/05/31 15:54:46:757',1,0.113706,0.554634,0.91317,0,0.5,1
258,'2026/05/31 15:54:46:790',1,0.113661,0.554769,0.913759,0,0.5,1
259,'2026/05/31 15:54:46:823',1,0.113489,0.554824,0.913686,0,0.5,1
260,'2026/05/31 15:54:46:854',1,0.113509,0.555093,0.912974,0,0.5,1
261,'2026/05/31 15:54:46:892',1,0.113549,0.554954,0.912264,0,0.5,1
262,'2026/05/31 15:54:46:922',1,0.113788,0.554859,0.914609,0,0.5,1
263,'2026/05/31 15:54:46:958',1,0.113946,0.554546,0.918182,0,0.5,1
264,'2026/05/31 15:54:46:987',1,0.113878,0.554865,0.91235,0,0.5,1
265,'2026/05/31 15:54:47:023',1,0.113912,0.554752,0.91243,0,0.5,1
266,'2026/05/31 15:54:47:056',1,0.113638,0.555601,0.914962,0,0.5,1
267,'2026/05/31 15:54:47:089',1,0.114212,0.555605,0.917368,0,0.5,1
268,'2026/05/31 15:54:47:124',1,0.114472,0.556443,0.914373,0,0.5,1
269,'2026/05/31 15:54:47:155',1,0.11499,0.555787,0.921682,0,0.5,1
270,'2026/05/31 15:54:47:192',1,0.114987,0.556134,0.916883,0,0.5,1
271,'2026/05/31 15:54:47:222',1,0.114637,0.556041,0.91562,0,0.5,1
272,'2026/05/31 15:54:47:257',1,0.114002,0.555287,0.918327,0,0.5,1
273,'2026/05/31 15:54:47:289',1,0.11361,0.555115,0.917619,0,0.5,1
274,'2026/05/31 15:54:47:324',1,0.113344,0.555136,0.919059,0,0.5,1
275,'2026/05/31 15:54:47:356',1,0.113063,0.555091,0.913281,0,0.5,1
276,'2026/05/31 15:54:47:391',1,0.113352,0.554849,0.910878,0,0.5,1
277,'2026/05/31 15:54:47:424',1,0.112075,0.554298,0.914631,0,0.5,1
278,'2026/05/31 15:54:47:456',1,0.11122,0.553506,0.917905,0,0.5,1
279,'2026/05/31 15:54:47:489',1,0.111194,0.552691,0.92086,0,0.5,1
280,'2026/05/31 15:54:47:523',1,0.111619,0.553334,0.907566,0,0.5,1
281,'2026/05/31 15:54:47:558',1,0.111419,0.553079,0.914332,0,0.5,1
282,'2026/05/31 15:54:47:589',1,0.111584,0.552132,0.918618,0,0.5,1
283,'2026/05/31 15:54:47:624',1,0.111574,0.553404,0.907625,0,0.5,1
284,'2026/05/31 15:54:47:657',1,0.111822,0.552981,0.916731,0,0.5,1
285,'2026/05/31 15:54:47:690',1,0.111818,0.552986,0.915569,0,0.5,1
286,'2026/05/31 15:54:47:725',1,0.111919,0.552959,0.917892,0,0.5,1
287,'2026/05/31 15:54:47:756',1,0.111934,0.553265,0.914944,0,0.5,1
288,'2026/05/31 15:54:47:792',1,0.112033,0.553207,0.919842,0,0.5,1
289,'2026/05/31 15:54:47:822',1,0.112275,0.5532,0.917762,0,0.5,1
290,'2026/05/31 15:54:47:858',1,0.112318,0.553597,0.909777,0,0.5,1
291,'2026/05/31 15:54:47:889',1,0.112579,0.553197,0.915631,0,0.5,1
292,'2026/05/31 15:54:47:924',1,0.112626,0.553375,0.914933,0,0.5,1
293,'2026/05/31 15:54:47:957',1,0.112756,0.553234,0.918377,0,0.5,1
294,'2026/05/31 15:54:47:989',1,0.112817,0.55366,0.917489,0,0.5,1
295,'2026/05/31 15:54:48:025',1,0.113062,0.553319,0.922615,0,0.5,1
296,'2026/05/31 15:54:48:055',1,0.112852,0.55413,0.912771,0,0.5,1
297,'2026/05/31 15:54:48:092',1,0.112919,0.554044,0.916653,0,0.5,1
298,'2026/05/31 15:54:48:122',1,0.112938,0.554163,0.915899,0,0.5,1
299,'2026/05/31 15:54:48:157',1,0.112966,0.553973,0.92046,0,0.5,1
300,'2026/05/31 15:54:48:190',1,0.112878,0.554411,0.913361,0,0.5,1
301,'2026/05/31 15:54:48:224',1,0.112714,0.553992,0.914005,0,0.5,1
302,'2026/05/31 15:54:48:257',1,0.112712,0.554341,0.909072,0,0.5,1
303,'2026/05/31 15:54:48:290',1,0.112334,0.554157,0.911028,0,0.5,1
304,'2026/05/31 15:54:48:325',1,0.111952,0.553906,0.910408,0,0.5,1
305,'2026/05/31 15:54:48:356',1,0.111811,0.553591,0.913011,0,0.5,1
306,'2026/05/31 15:54:48:392',1,0.111811,0.55409,0.905486,0,0.5,1
307,'2026/05/31 15:54:48:422',1,0.111538,0.553448,0.907984,0,0.5,1
308,'2026/05/31 15:54:48:458',1,0.111138,0.552741,0.911659,0,0.5,1
309,'2026/05/31 15:54:48:488',1,0.110902,0.551946,0.909608,0,0.5,1
310,'2026/05/31 15:54:48:524',1,0.110861,0.550396,0.916473,0,0.5,1
311,'2026/05/31 15:54:48:557',1,0.11106,0.549991,0.918452,0,0.5,1
312,'2026/05/31 15:54:48:590',1,0.111379,0.549373,0.923717,0,0.5,1
313,'2026/05/31 15:54:48:625',1,0.111819,0.548616,0.931711,0,0.5,1
314,'2026/05/31 15:54:48:656',1,0.112217,0.54848,0.929941,0,0.5,1
315,'2026/05/31 15:54:48:692',1,0.112336,0.54851,0.939996,0,0.5,1
316,'2026/05/31 15:54:48:722',1,0.112481,0.54884,0.939658,0,0.5,1
317,'2026/05/31 15:54:48:758',1,0.112851,0.549164,0.936917,0,0.5,1
318,'2026/05/31 15:54:48:789',1,0.113089,0.548557,0.9385,0,0.5,1
319,'2026/05/31 15:54:48:825',1,0.113131,0.548632,0.935262,0,0.5,1
320,'2026/05/31 15:54:48:856',1,0.113345,0.548415,0.932553,0,0.5,1
321,'2026/05/31 15:54:48:891',1,0.113698,0.548209,0.930426,0,0.5,1
322,'2026/05/31 15:54:48:923',1,0.11342,0.548625,0.927618,0,0.5,1
323,'2026/05/31 15:54:48:958',1,0.112992,0.548797,0.926423,0,0.5,1
324,'2026/05/31 15:54:48:991',1,0.113288,0.548875,0.925046,0,0.5,1
325,'2026/05/31 15:54:49:023',1,0.11326,0.549179,0.927188,0,0.5,1
326,'2026/05/31 15:54:49:055',1,0.113589,0.549538,0.923724,0,0.5,1
327,'2026/05/31 15:54:49:091',1,0.113923,0.54939,0.93125,0,0.5,1
328,'2026/05/31 15:54:49:124',1,0.114204,0.549981,0.928846,0,0.5,1
329,'2026/05/31 15:54:49:156',1,0.114619,0.550558,0.926818,0,0.5,1
330,'2026/05/31 15:54:49:188',1,0.114918,0.550722,0.928913,0,0.5,1
331,'2026/05/31 15:54:49:221',1,0.114921,0.550611,0.931289,0,0.5,1
332,'2026/05/31 15:54:49:253',1,0.114883,0.550478,0.933493,0,0.5,1
333,'2026/05/31 15:54:49:286',1,0.11469,0.550337,0.931823,0,0.5,1
334,'2026/05/31 15:54:49:321',1,0.114528,0.550214,0.932592,0,0.5,1
335,'2026/05/31 15:54:49:354',1,0.114152,0.549882,0.934576,0,0.5,1
336,'2026/05/31 15:54:49:388',1,0.113878,0.55007,0.932364,0,0.5,1
337,'2026/05/31 15:54:49:421',1,0.114053,0.549899,0.934119,0,0.5,1
338,'2026/05/31 15:54:49:455',1,0.113942,0.549842,0.937554,0,0.5,1
339,'2026/05/31 15:54:49:487',1,0.113882,0.549583,0.938222,0,0.5,1
340,'2026/05/31 15:54:49:520',1,0.113352,0.549412,0.944431,0,0.5,1
341,'2026/05/31 15:54:49:554',1,0.113185,0.549723,0.937378,0,0.5,1
342,'2026/05/31 15:54:49:587',1,0.113187,0.55012,0.934686,0,0.5,1
343,'2026/05/31 15:54:49:621',1,0.11312,0.549765,0.939231,0,0.5,1
344,'2026/05/31 15:54:49:654',1,0.113195,0.549512,0.938027,0,0.5,1
345,'2026/05/31 15:54:49:688',1,0.112974,0.549407,0.941292,0,0.5,1
346,'2026/05/31 15:54:49:721',1,0.112977,0.549213,0.940794,0,0.5,1
347,'2026/05/31 15:54:49:754',1,0.113052,0.54921,0.941111,0,0.5,1
348,'2026/05/31 15:54:49:787',1,0.112938,0.549238,0.941663,0,0.5,1
349,'2026/05/31 15:54:49:821',1,0.113051,0.549248,0.94372,0,0.5,1
350,'2026/05/31 15:54:49:855',1,0.113173,0.5493,0.944591,0,0.5,1
351,'2026/05/31 15:54:49:888',1,0.113248,0.549725,0.943275,0,0.5,1
352,'2026/05/31 15:54:49:921',1,0.113478,0.549356,0.944604,0,0.5,1
353,'2026/05/31 15:54:49:954',1,0.113039,0.549696,0.944547,0,0.5,1
354,'2026/05/31 15:54:49:988',1,0.113005,0.549489,0.950275,0,0.5,1
355,'2026/05/31 15:54:50:020',1,0.11303,0.549686,0.947765,0,0.5,1
356,'2026/05/31 15:54:50:054',1,0.112964,0.550074,0.942938,0,0.5,1
357,'2026/05/31 15:54:50:088',1,0.113162,0.54982,0.946553,0,0.5,1
358,'2026/05/31 15:54:50:121',1,0.113154,0.549395,0.949144,0,0.5,1
359,'2026/05/31 15:54:50:157',1,0.113119,0.549715,0.948989,0,0.5,1
360,'2026/05/31 15:54:50:190',1,0.113266,0.55007,0.947011,0,0.5,1
361,'2026/05/31 15:54:50:224',1,0.11371,0.549641,0.949414,0,0.5,1
362,'2026/05/31 15:54:50:255',1,0.113902,0.54885,0.948814,0,0.5,1
363,'2026/05/31 15:54:50:291',1,0.113944,0.548966,0.948181,0,0.5,1
364,'2026/05/31 15:54:50:322',1,0.113602,0.548495,0.954645,0,0.5,1
365,'2026/05/31 15:54:50:357',1,0.1137,0.54776,0.964159,0,0.5,1
366,'2026/05/31 15:54:50:390',1,0.113882,0.547916,0.966979,0,0.5,1
367,'2026/05/31 15:54:50:423',1,0.114285,0.548231,0.969044,0,0.5,1
368,'2026/05/31 15:54:50:458',1,0.114639,0.548414,0.967542,0,0.5,1
369,'2026/05/31 15:54:50:489',1,0.115002,0.548697,0.96638,0,0.5,1
370,'2026/05/31 15:54:50:525',1,0.115456,0.549166,0.966642,0,0.5,1
371,'2026/05/31 15:54:50:556',1,0.115607,0.548831,0.965073,0,0.5,1
372,'2026/05/31 15:54:50:591',1,0.115285,0.549042,0.959904,0,0.5,1
373,'2026/05/31 15:54:50:623',1,0.115436,0.549263,0.958816,0,0.5,1
374,'2026/05/31 15:54:50:656',1,0.115365,0.549564,0.952965,0,0.5,1
375,'2026/05/31 15:54:50:690',1,0.115247,0.549254,0.957756,0,0.5,1
376,'2026/05/31 15:54:50:722',1,0.1149,0.549353,0.956392,0,0.5,1
377,'2026/05/31 15:54:50:753',1,0.114903,0.549407,0.958034,0,0.5,1
378,'2026/05/31 15:54:50:788',1,0.114885,0.549285,0.960132,0,0.5,1
379,'2026/05/31 15:54:50:824',1,0.11496,0.549746,0.962825,0,0.5,1
380,'2026/05/31 15:54:50:856',1,0.114887,0.550491,0.958252,0,0.5,1
381,'2026/05/31 15:54:50:890',1,0.114886,0.55092,0.949402,0,0.5,1
382,'2026/05/31 15:54:50:923',1,0.114984,0.550914,0.949371,0,0.5,1
383,'2026/05/31 15:54:50:957',1,0.114518,0.551146,0.946566,0,0.5,1
384,'2026/05/31 15:54:50:990',1,0.11439,0.551093,0.948867,0,0.5,1
385,'2026/05/31 15:54:51:023',1,0.114478,0.550953,0.949602,0,0.5,1
386,'2026/05/31 15:54:51:057',1,0.11439,0.550821,0.951658,0,0.5,1
387,'2026/05/31 15:54:51:089',1,0.114287,0.550268,0.955764,0,0.5,1
388,'2026/05/31 15:54:51:123',1,0.114453,0.550284,0.945928,0,0.5,1
389,'2026/05/31 15:54:51:157',1,0.114368,0.550061,0.944908,0,0.5,1
390,'2026/05/31 15:54:51:187',1,0.114366,0.550028,0.950492,0,0.5,1
391,'2026/05/31 15:54:51:224',1,0.114391,0.550378,0.943874,0,0.5,1
392,'2026/05/31 15:54:51:256',1,0.114596,0.550602,0.943633,0,0.5,1
393,'2026/05/31 15:54:51:291',1,0.114814,0.549888,0.95239,0,0.5,1
394,'2026/05/31 15:54:51:319',1,0.114863,0.549509,0.956388,0,0.5,1
395,'2026/05/31 15:54:51:353',1,0.114774,0.549114,0.953367,0,0.5,1
396,'2026/05/31 15:54:51:387',1,0.114672,0.548861,0.952832,0,0.5,1
397,'2026/05/31 15:54:51:420',1,0.11467,0.549076,0.952376,0,0.5,1
398,'2026/05/31 15:54:51:453',1,0.114582,0.548619,0.95467,0,0.5,1
399,'2026/05/31 15:54:51:487',1,0.114547,0.548633,0.952758,0,0.5,1
400,'2026/05/31 15:54:51:520',1,0.114575,0.548664,0.950781,0,0.5,1
401,'2026/05/31 15:54:51:554',1,0.114624,0.548557,0.949119,0,0.5,1
402,'2026/05/31 15:54:51:587',1,0.114605,0.548356,0.950629,0,0.5,1
403,'2026/05/31 15:54:51:619',1,0.114146,0.548273,0.954651,0,0.5,1
404,'2026/05/31 15:54:51:653',1,0.114186,0.54778,0.956469,0,0.5,1
405,'2026/05/31 15:54:51:687',1,0.114089,0.547013,0.959659,0,0.5,1
406,'2026/05/31 15:54:51:725',1,0.114258,0.546867,0.954818,0,0.5,1
407,'2026/05/31 15:54:51:756',1,0.11412,0.546414,0.96034,0,0.5,1
408,'2026/05/31 15:54:51:788',1,0.113938,0.546033,0.964362,0,0.5,1
409,'2026/05/31 15:54:51:825',1,0.113701,0.546062,0.964023,0,0.5,1
410,'2026/05/31 15:54:51:855',1,0.113578,0.546316,0.960752,0,0.5,1
411,'2026/05/31 15:54:51:891',1,0.113513,0.546437,0.956583,0,0.5,1
412,'2026/05/31 15:54:51:923',1,0.113237,0.545674,0.962451,0,0.5,1
413,'2026/05/31 15:54:51:957',1,0.112672,0.545131,0.96558,0,0.5,1
414,'2026/05/31 15:54:51:990',1,0.112612,0.544533,0.966408,0,0.5,1
415,'2026/05/31 15:54:52:024',1,0.112398,0.54402,0.961891,0,0.5,1
416,'2026/05/31 15:54:52:057',1,0.112246,0.543122,0.963849,0,0.5,1
417,'2026/05/31 15:54:52:091',1,0.1122,0.543186,0.96179,0,0.5,1
418,'2026/05/31 15:54:52:124',1,0.111912,0.542993,0.963328,0,0.5,1
419,'2026/05/31 15:54:52:156',1,0.111968,0.543098,0.963045,0,0.5,1
420,'2026/05/31 15:54:52:191',1,0.112239,0.543389,0.961406,0,0.5,1
421,'2026/05/31 15:54:52:222',1,0.112517,0.543789,0.960268,0,0.5,1
422,'2026/05/31 15:54:52:258',1,0.112647,0.543985,0.960491,0,0.5,1
423,'2026/05/31 15:54:52:290',1,0.112496,0.543973,0.956582,0,0.5,1
424,'2026/05/31 15:54:52:324',1,0.11293,0.543586,0.957947,0,0.5,1
425,'2026/05/31 15:54:52:358',1,0.113121,0.543132,0.959181,0,0.5,1
426,'2026/05/31 15:54:52:389',1,0.113448,0.542611,0.963607,0,0.5,1
427,'2026/05/31 15:54:52:424',1,0.113933,0.542471,0.957459,0,0.5,1
428,'2026/05/31 15:54:52:456',1,0.114698,0.542491,0.96095,0,0.5,1
429,'2026/05/31 15:54:52:491',1,0.11521,0.542419,0.967481,0,0.5,1
430,'2026/05/31 15:54:52:524',1,0.115771,0.542531,0.97065,0,0.5,1
431,'2026/05/31 15:54:52:556',1,0.116045,0.542631,0.972468,0,0.5,1
432,'2026/05/31 15:54:52:591',1,0.116311,0.543612,0.968962,0,0.5,1
433,'2026/05/31 15:54:52:623',1,0.116563,0.544437,0.965099,0,0.5,1
434,'2026/05/31 15:54:52:658',1,0.116782,0.544595,0.975998,0,0.5,1
435,'2026/05/31 15:54:52:689',1,0.117189,0.544907,0.972599,0,0.5,1
436,'2026/05/31 15:54:52:721',1,0.117323,0.545771,0.965735,0,0.5,1
437,'2026/05/31 15:54:52:758',1,0.117287,0.546749,0.966143,0,0.5,1
438,'2026/05/31 15:54:52:789',1,0.116974,0.547568,0.960364,0,0.5,1
439,'2026/05/31 15:54:52:824',1,0.117048,0.547482,0.967011,0,0.5,1
440,'2026/05/31 15:54:52:858',1,0.116943,0.548026,0.966742,0,0.5,1
441,'2026/05/31 15:54:52:890',1,0.117523,0.547785,0.965874,0,0.5,1
442,'2026/05/31 15:54:52:921',1,0.118283,0.547625,0.966493,0,0.5,1
443,'2026/05/31 15:54:52:956',1,0.118732,0.547141,0.969938,0,0.5,1
444,'2026/05/31 15:54:52:991',1,0.119165,0.547027,0.972365,0,0.5,1
445,'2026/05/31 15:54:53:022',1,0.120006,0.546797,0.977314,0,0.5,1
446,'2026/05/31 15:54:53:058',1,0.121033,0.546614,0.977773,0,0.5,1
447,'2026/05/31 15:54:53:090',1,0.12176,0.546301,0.992129,0,0.5,1
448,'2026/05/31 15:54:53:125',1,0.122488,0.546203,0.992082,0,0.5,1
449,'2026/05/31 15:54:53:156',1,0.122703,0.546661,0.984505,0,0.5,1
450,'2026/05/31 15:54:53:191',1,0.122911,0.546999,0.979046,0,0.5,1
451,'2026/05/31 15:54:53:224',1,0.123494,0.547022,0.984762,0,0.5,1
452,'2026/05/31 15:54:53:259',1,0.123721,0.547167,0.986579,0,0.5,1
453,'2026/05/31 15:54:53:289',1,0.12415,0.547422,0.989024,0,0.5,1
454,'2026/05/31 15:54:53:325',1,0.124711,0.5475,0.990512,0,0.5,1
455,'2026/05/31 15:54:53:357',1,0.124428,0.54735,0.990741,0,0.5,1
456,'2026/05/31 15:54:53:390',1,0.124684,0.547509,0.986363,0,0.5,1
457,'2026/05/31 15:54:53:424',1,0.124696,0.547346,0.983992,0,0.5,1
458,'2026/05/31 15:54:53:454',1,0.124787,0.54716,0.982763,0,0.5,1
459,'2026/05/31 15:54:53:492',1,0.124874,0.547316,0.984707,0,0.5,1
460,'2026/05/31 15:54:53:524',1,0.124917,0.547676,0.983546,0,0.5,1
461,'2026/05/31 15:54:53:556',1,0.125041,0.54775,0.989386,0,0.5,1
462,'2026/05/31 15:54:53:592',1,0.125344,0.547746,0.989819,0,0.5,1
463,'2026/05/31 15:54:53:622',1,0.125343,0.547955,0.983726,0,0.5,1
464,'2026/05/31 15:54:53:657',1,0.125205,0.548109,0.979021,0,0.5,1
465,'2026/05/31 15:54:53:691',1,0.125429,0.547581,0.982961,0,0.5,1
466,'2026/05/31 15:54:53:723',1,0.125798,0.547745,0.983053,0,0.5,1
467,'2026/05/31 15:54:53:758',1,0.126336,0.547513,0.986045,0,0.5,1
468,'2026/05/31 15:54:53:789',1,0.126861,0.547714,0.979091,0,0.5,1
469,'2026/05/31 15:54:53:822',1,0.126626,0.547043,0.985814,0,0.5,1
470,'2026/05/31 15:54:53:856',1,0.1266,0.546595,0.986904,0,0.5,1
471,'2026/05/31 15:54:53:891',1,0.126725,0.547004,0.979755,0,0.5,1
472,'2026/05/31 15:54:53:923',1,0.126852,0.547002,0.980789,0,0.5,1
473,'2026/05/31 15:54:53:955',1,0.127112,0.547229,0.979213,0,0.5,1
474,'2026/05/31 15:54:53:992',1,0.127583,0.547203,0.985274,0,0.5,1
475,'2026/05/31 15:54:54:023',1,0.12797,0.547545,0.981719,0,0.5,1
476,'2026/05/31 15:54:54:058',1,0.127939,0.547601,0.987099,0,0.5,1
477,'2026/05/31 15:54:54:088',1,0.128564,0.548708,0.983189,0,0.5,1
478,'2026/05/31 15:54:54:125',1,0.12872,0.549123,0.993023,0,0.5,1
479,'2026/05/31 15:54:54:157',1,0.128871,0.549498,0.995462,0,0.5,1
480,'2026/05/31 15:54:54:191',1,0.129053,0.550151,0.990014,0,0.5,1
481,'2026/05/31 15:54:54:224',1,0.129066,0.550774,0.995486,0,0.5,1
482,'2026/05/31 15:54:54:258',1,0.129253,0.551395,0.993618,0,0.5,1
483,'2026/05/31 15:54:54:289',1,0.129336,0.551475,0.998572,0,0.5,1
484,'2026/05/31 15:54:54:320',1,0.129186,0.552165,0.996055,0,0.5,1
485,'2026/05/31 15:54:54:356',1,0.12928,0.552509,0.996865,0,0.5,1
486,'2026/05/31 15:54:54:387',1,0.129132,0.553055,0.984923,0,0.5,1
487,'2026/05/31 15:54:54:419',1,0.128444,0.553061,0.988698,0,0.5,1
488,'2026/05/31 15:54:54:456',1,0.12823,0.553521,0.984868,0,0.5,1
489,'2026/05/31 15:54:54:487',1,0.128335,0.553555,0.978321,0,0.5,1
490,'2026/05/31 15:54:54:524',1,0.128289,0.553516,0.978894,0,0.5,1
491,'2026/05/31 15:54:54:553',1,0.12863,0.553667,0.980998,0,0.5,1
492,'2026/05/31 15:54:54:588',1,0.129452,0.553485,0.984542,0,0.5,1
493,'2026/05/31 15:54:54:622',1,0.130072,0.553621,0.981544,0,0.5,1
494,'2026/05/31 15:54:54:654',1,0.13023,0.554031,0.980772,0,0.5,1
495,'2026/05/31 15:54:54:691',1,0.130502,0.554289,0.982517,0,0.5,1
496,'2026/05/31 15:54:54:721',1,0.130459,0.554429,0.984964,0,0.5,1
497,'2026/05/31 15:54:54:757',1,0.130265,0.554938,0.980552,0,0.5,1
498,'2026/05/31 15:54:54:789',1,0.129921,0.554648,0.982954,0,0.5,1
499,'2026/05/31 15:54:54:823',1,0.129722,0.554415,0.978153,0,0.5,1
500,'2026/05/31 15:54:54:857',1,0.129343,0.553822,0.976808,0,0.5,1
501,'2026/05/31 15:54:54:890',1,0.129003,0.553055,0.981166,0,0.5,1
502,'2026/05/31 15:54:54:924',1,0.128381,0.552338,0.986643,0,0.5,1
503,'2026/05/31 15:54:54:957',1,0.128109,0.552122,0.985261,0,0.5,1
504,'2026/05/31 15:54:54:991',1,0.127614,0.552244,0.986678,0,0.5,1
505,'2026/05/31 15:54:55:023',1,0.127368,0.553012,0.985147,0,0.5,1
506,'2026/05/31 15:54:55:057',1,0.127254,0.553537,0.983703,0,0.5,1
507,'2026/05/31 15:54:55:091',1,0.127017,0.553972,0.981287,0,0.5,1
508,'2026/05/31 15:54:55:124',1,0.126503,0.554182,0.983218,0,0.5,1
509,'2026/05/31 15:54:55:159',1,0.126575,0.55402,0.97513,0,0.5,1
510,'2026/05/31 15:54:55:190',1,0.12648,0.553717,0.972653,0,0.5,1
511,'2026/05/31 15:54:55:225',1,0.126251,0.55249,0.984074,0,0.5,1
512,'2026/05/31 15:54:55:256',1,0.126096,0.552239,0.975314,0,0.5,1
513,'2026/05/31 15:54:55:291',1,0.126454,0.551278,0.985414,0,0.5,1
514,'2026/05/31 15:54:55:324',1,0.126957,0.551107,0.98773,0,0.5,1
515,'2026/05/31 15:54:55:358',1,0.127728,0.5512,0.987765,0,0.5,1
516,'2026/05/31 15:54:55:391',1,0.128579,0.551051,0.994433,0,0.5,1
517,'2026/05/31 15:54:55:424',1,0.129043,0.551537,0.990868,0,0.5,1
518,'2026/05/31 15:54:55:459',1,0.129261,0.551691,0.995637,0,0.5,1
519,'2026/05/31 15:54:55:489',1,0.129242,0.552242,0.991767,0,0.5,1
520,'2026/05/31 15:54:55:525',1,0.129419,0.552801,0.989221,0,0.5,1
521,'2026/05/31 15:54:55:555',1,0.129509,0.553004,0.989243,0,0.5,1
522,'2026/05/31 15:54:55:591',1,0.129266,0.553156,0.986534,0,0.5,1
523,'2026/05/31 15:54:55:624',1,0.129305,0.553216,0.979797,0,0.5,1
524,'2026/05/31 15:54:55:658',1,0.129262,0.552495,0.986027,0,0.5,1
525,'2026/05/31 15:54:55:692',1,0.129556,0.55152,0.989105,0,0.5,1
526,'2026/05/31 15:54:55:723',1,0.129897,0.550239,0.993177,0,0.5,1
527,'2026/05/31 15:54:55:758',1,0.131254,0.549062,0.994452,0,0.5,1
528,'2026/05/31 15:54:55:789',1,0.132658,0.547462,1,0,0.5,1
529,'2026/05/31 15:54:55:824',1,0.133956,0.546121,1,0,0.5,1
530,'2026/05/31 15:54:55:858',1,0.13535,0.54462,1,0,0.5,1
531,'2026/05/31 15:54:55:891',1,0.136506,0.543565,1,0,0.5,1
532,'2026/05/31 15:54:55:925',1,0.138018,0.543451,1,0,0.5,1
533,'2026/05/31 15:54:55:958',1,0.139854,0.543369,1,0,0.5,1
534,'2026/05/31 15:54:55:990',1,0.142063,0.544334,0.995874,0,0.5,1
535,'2026/05/31 15:54:56:023',1,0.144938,0.545387,0.99489,0,0.5,1
536,'2026/05/31 15:54:56:058',1,0.147006,0.546953,0.987153,0,0.5,1
537,'2026/05/31 15:54:56:091',1,0.148852,0.547521,0.98838,0,0.5,1
538,'2026/05/31 15:54:56:124',1,0.149868,0.548192,0.987216,0,0.5,1
539,'2026/05/31 15:54:56:158',1,0.150539,0.548767,0.982121,0,0.5,1
540,'2026/05/31 15:54:56:190',1,0.150818,0.549281,0.982092,0,0.5,1
541,'2026/05/31 15:54:56:225',1,0.151684,0.550044,0.973655,0,0.5,1
542,'2026/05/31 15:54:56:255',1,0.151987,0.550911,0.978375,0,0.5,1
543,'2026/05/31 15:54:56:291',1,0.153194,0.551117,0.983291,0,0.5,1
544,'2026/05/31 15:55:16:061',2,0.91192,0.513311,1,1,0.5,1
545,'2026/05/31 15:55:16:091',2,0.911829,0.51317,1,1,0.5,1
546,'2026/05/31 15:55:16:126',2,0.911044,0.510321,1,1,0.5,1
547,'2026/05/31 15:55:16:163',2,0.911221,0.512175,1,1,0.5,1
548,'2026/05/31 15:55:16:191',2,0.910951,0.515114,1,1,0.5,1
549,'2026/05/31 15:55:16:227',2,0.910761,0.513932,1,1,0.5,1
550,'2026/05/31 15:55:16:260',2,0.910565,0.514398,1,1,0.5,1
551,'2026/05/31 15:55:16:294',2,0.910437,0.517243,1,1,0.5,1
552,'2026/05/31 15:55:16:328',2,0.909634,0.517411,1,1,0.5,1
553,'2026/05/31 15:55:16:360',2,0.908733,0.516677,1,1,0.5,1
554,'2026/05/31 15:55:16:395',2,0.908796,0.517955,1,1,0.5,1
555,'2026/05/31 15:55:16:425',2,0.908101,0.519538,1,1,0.5,1
556,'2026/05/31 15:55:16:461',2,0.907474,0.518395,1,1,0.5,1
557,'2026/05/31 15:55:16:493',2,0.907766,0.518879,1,1,0.5,1
558,'2026/05/31 15:55:16:527',2,0.907754,0.520062,1,1,0.5,1
559,'2026/05/31 15:55:16:561',2,0.907771,0.519101,1,1,0.5,1
560,'2026/05/31 15:55:16:593',2,0.907782,0.51786,1,1,0.5,1
561,'2026/05/31 15:55:16:627',2,0.908174,0.517588,1,1,0.5,1
562,'2026/05/31 15:55:16:658',2,0.908958,0.517008,1,1,0.5,1
563,'2026/05/31 15:55:16:691',2,0.909551,0.515251,1,1,0.5,1
564,'2026/05/31 15:55:16:724',2,0.909931,0.514494,1,1,0.5,1
565,'2026/05/31 15:55:16:757',2,0.910395,0.515104,1,1,0.5,1
566,'2026/05/31 15:55:16:799',2,0.910163,0.51497,1,1,0.5,1
567,'2026/05/31 15:55:16:825',2,0.909491,0.514892,1,1,0.5,1
568,'2026/05/31 15:55:16:860',2,0.908958,0.516132,1,1,0.5,1
569,'2026/05/31 15:55:16:893',2,0.907696,0.516564,1,1,0.5,1
570,'2026/05/31 15:55:16:927',2,0.906829,0.516495,1,1,0.5,1
571,'2026/05/31 15:55:16:961',2,0.907123,0.517589,1,1,0.5,1
572,'2026/05/31 15:55:16:993',2,0.907022,0.518778,1,1,0.5,1
573,'2026/05/31 15:55:17:029',2,0.906871,0.519072,1,1,0.5,1
574,'2026/05/31 15:55:17:059',2,0.906832,0.520013,1,1,0.5,1
575,'2026/05/31 15:55:17:093',2,0.906813,0.521781,1,1,0.5,1
576,'2026/05/31 15:55:17:127',2,0.906883,0.521657,1,1,0.5,1
577,'2026/05/31 15:55:17:160',2,0.906763,0.521921,1,1,0.5,1
578,'2026/05/31 15:55:17:194',2,0.906795,0.521703,1,1,0.5,1
579,'2026/05/31 15:55:17:226',2,0.907134,0.520907,1,1,0.5,1
580,'2026/05/31 15:55:17:263',2,0.907994,0.519177,1,1,0.5,1
581,'2026/05/31 15:55:17:292',2,0.908961,0.517143,1,1,0.5,1
582,'2026/05/31 15:55:17:327',2,0.910022,0.516696,1,1,0.5,1
583,'2026/05/31 15:55:17:359',2,0.910773,0.515661,1,1,0.5,1
584,'2026/05/31 15:55:17:395',2,0.911223,0.515501,1,1,0.5,1
585,'2026/05/31 15:55:17:428',2,0.911496,0.515669,1,1,0.5,1
586,'2026/05/31 15:55:17:460',2,0.91162,0.515864,1,1,0.5,1
587,'2026/05/31 15:55:17:496',2,0.911394,0.515384,1,1,0.5,1
588,'2026/05/31 15:55:17:526',2,0.911093,0.515414,1,1,0.5,1
589,'2026/05/31 15:55:17:561',2,0.911178,0.515057,1,1,0.5,1
590,'2026/05/31 15:55:17:593',2,0.910779,0.513525,1,1,0.5,1
591,'2026/05/31 15:55:17:628',2,0.910965,0.513172,1,1,0.5,1
592,'2026/05/31 15:55:17:661',2,0.911114,0.512499,1,1,0.5,1
593,'2026/05/31 15:55:17:693',2,0.911386,0.511519,1,1,0.5,1
594,'2026/05/31 15:55:17:728',2,0.911812,0.510916,1,1,0.5,1
595,'2026/05/31 15:55:17:759',2,0.912213,0.51057,1,1,0.5,1
596,'2026/05/31 15:55:17:794',2,0.912057,0.510708,1,1,0.5,1
597,'2026/05/31 15:55:17:827',2,0.911932,0.51058,1,1,0.5,1
598,'2026/05/31 15:55:17:860',2,0.911826,0.510923,1,1,0.5,1
599,'2026/05/31 15:55:17:895',2,0.91176,0.511742,1,1,0.5,1
600,'2026/05/31 15:55:17:924',2,0.911549,0.512582,1,1,0.5,1
601,'2026/05/31 15:55:17:960',2,0.911588,0.51346,1,1,0.5,1
602,'2026/05/31 15:55:17:993',2,0.911874,0.514032,1,1,0.5,1
603,'2026/05/31 15:55:18:029',2,0.912313,0.513909,1,1,0.5,1
604,'2026/05/31 15:55:18:061',2,0.912543,0.514077,1,1,0.5,1
605,'2026/05/31 15:55:18:093',2,0.912821,0.51395,1,1,0.5,1
606,'2026/05/31 15:55:18:129',2,0.91297,0.514178,1,1,0.5,1
607,'2026/05/31 15:55:18:159',2,0.913681,0.514231,1,1,0.5,1
608,'2026/05/31 15:55:18:195',2,0.913987,0.51444,1,1,0.5,1
609,'2026/05/31 15:55:18:226',2,0.914133,0.514515,1,1,0.5,1
610,'2026/05/31 15:55:18:262',2,0.914507,0.514299,1,1,0.5,1
611,'2026/05/31 15:55:18:295',2,0.914998,0.514191,1,1,0.5,1
612,'2026/05/31 15:55:18:326',2,0.915353,0.514574,1,1,0.5,1
613,'2026/05/31 15:55:18:363',2,0.915453,0.514563,1,1,0.5,1
614,'2026/05/31 15:55:18:392',2,0.915793,0.514376,1,1,0.5,1
615,'2026/05/31 15:55:18:428',2,0.915885,0.51456,1,1,0.5,1
616,'2026/05/31 15:55:18:459',2,0.91592,0.514332,1,1,0.5,1
617,'2026/05/31 15:55:18:495',2,0.916118,0.514091,1,1,0.5,1
618,'2026/05/31 15:55:18:528',2,0.916351,0.513966,1,1,0.5,1
619,'2026/05/31 15:55:18:560',2,0.916646,0.513828,1,1,0.5,1
620,'2026/05/31 15:55:18:596',2,0.916644,0.513575,1,1,0.5,1
621,'2026/05/31 15:55:18:625',2,0.91694,0.513505,1,1,0.5,1
622,'2026/05/31 15:55:18:660',2,0.916825,0.513626,1,1,0.5,1
623,'2026/05/31 15:55:18:693',2,0.916854,0.513518,1,1,0.5,1
624,'2026/05/31 15:55:18:728',2,0.916807,0.513689,1,1,0.5,1
625,'2026/05/31 15:55:18:761',2,0.916935,0.513785,1,1,0.5,1
626,'2026/05/31 15:55:18:794',2,0.916896,0.514073,1,1,0.5,1
627,'2026/05/31 15:55:18:828',2,0.916901,0.514299,1,1,0.5,1
628,'2026/05/31 15:55:18:860',2,0.916821,0.514559,1,1,0.5,1
629,'2026/05/31 15:55:18:894',2,0.916913,0.514688,1,1,0.5,1
630,'2026/05/31 15:55:18:927',2,0.916877,0.514842,1,1,0.5,1
631,'2026/05/31 15:55:18:961',2,0.916789,0.515115,1,1,0.5,1
632,'2026/05/31 15:55:18:994',2,0.916762,0.515161,1,1,0.5,1
633,'2026/05/31 15:55:19:026',2,0.916519,0.515153,1,1,0.5,1
634,'2026/05/31 15:55:19:061',2,0.916453,0.51549,1,1,0.5,1
635,'2026/05/31 15:55:19:092',2,0.916249,0.515522,1,1,0.5,1
636,'2026/05/31 15:55:19:128',2,0.916227,0.515624,1,1,0.5,1
637,'2026/05/31 15:55:19:160',2,0.916176,0.515489,1,1,0.5,1
638,'2026/05/31 15:55:19:195',2,0.916139,0.51539,1,1,0.5,1
639,'2026/05/31 15:55:19:228',2,0.916175,0.515389,1,1,0.5,1
640,'2026/05/31 15:55:19:260',2,0.916078,0.515402,1,1,0.5,1
641,'2026/05/31 15:55:19:295',2,0.915569,0.515683,1,1,0.5,1
642,'2026/05/31 15:55:19:326',2,0.915197,0.515473,1,1,0.5,1
643,'2026/05/31 15:55:19:361',2,0.915191,0.515533,1,1,0.5,1
644,'2026/05/31 15:55:19:394',2,0.914913,0.515477,1,1,0.5,1
645,'2026/05/31 15:55:19:427',2,0.914948,0.51547,1,1,0.5,1
646,'2026/05/31 15:55:19:462',2,0.914948,0.515321,1,1,0.5,1
647,'2026/05/31 15:55:19:493',2,0.914799,0.515176,1,1,0.5,1
648,'2026/05/31 15:55:19:529',2,0.914895,0.514808,1,1,0.5,1
649,'2026/05/31 15:55:19:558',2,0.915108,0.514538,1,1,0.5,1
650,'2026/05/31 15:55:19:595',2,0.915706,0.513858,1,1,0.5,1
651,'2026/05/31 15:55:19:627',2,0.916711,0.512419,1,1,0.5,1
652,'2026/05/31 15:55:19:660',2,0.91752,0.511117,1,1,0.5,1
653,'2026/05/31 15:55:19:694',2,0.917921,0.510088,1,1,0.5,1
654,'2026/05/31 15:55:19:726',2,0.918444,0.509208,1,1,0.5,1
655,'2026/05/31 15:55:19:761',2,0.918352,0.508507,1,1,0.5,1
656,'2026/05/31 15:55:19:793',2,0.918189,0.507885,1,1,0.5,1
657,'2026/05/31 15:55:19:829',2,0.917629,0.507493,1,1,0.5,1
658,'2026/05/31 15:55:19:861',2,0.917403,0.506669,1,1,0.5,1
659,'2026/05/31 15:55:19:893',2,0.917398,0.506114,1,1,0.5,1
660,'2026/05/31 15:55:19:929',2,0.917427,0.505781,1,1,0.5,1
661,'2026/05/31 15:55:19:960',2,0.917424,0.505323,1,1,0.5,1
662,'2026/05/31 15:55:19:994',2,0.917616,0.504801,1,1,0.5,1
663,'2026/05/31 15:55:20:028',2,0.917903,0.504408,1,1,0.5,1
664,'2026/05/31 15:55:20:060',2,0.918092,0.50433,1,1,0.5,1
665,'2026/05/31 15:55:20:091',2,0.91846,0.504357,1,1,0.5,1
666,'2026/05/31 15:55:20:127',2,0.918855,0.504244,1,1,0.5,1
667,'2026/05/31 15:55:20:162',2,0.91934,0.504083,1,1,0.5,1
668,'2026/05/31 15:55:20:193',2,0.919732,0.504501,1,1,0.5,1
669,'2026/05/31 15:55:20:228',2,0.9206,0.505102,1,1,0.5,1
670,'2026/05/31 15:55:20:261',2,0.921694,0.506089,1,1,0.5,1
671,'2026/05/31 15:55:20:293',2,0.922774,0.507116,1,1,0.5,1
672,'2026/05/31 15:55:20:329',2,0.923451,0.509363,1,1,0.5,1
673,'2026/05/31 15:55:20:359',2,0.924092,0.510385,1,1,0.5,1
674,'2026/05/31 15:55:20:395',2,0.925,0.511531,1,1,0.5,1
675,'2026/05/31 15:55:20:425',2,0.925414,0.51278,1,1,0.5,1
676,'2026/05/31 15:55:20:462',2,0.925949,0.513397,1,1,0.5,1
677,'2026/05/31 15:55:20:494',2,0.926816,0.513535,1,1,0.5,1
678,'2026/05/31 15:55:20:527',2,0.927785,0.513963,1,1,0.5,1
679,'2026/05/31 15:55:20:562',2,0.928611,0.513311,1,1,0.5,1
680,'2026/05/31 15:55:20:593',2,0.929491,0.513479,1,1,0.5,1
681,'2026/05/31 15:55:20:627',2,0.930475,0.512313,1,1,0.5,1
682,'2026/05/31 15:55:20:660',2,0.931458,0.512451,1,1,0.5,1
683,'2026/05/31 15:55:20:695',2,0.932894,0.511321,1,1,0.5,1
684,'2026/05/31 15:55:20:728',2,0.933304,0.51117,1,1,0.5,1
685,'2026/05/31 15:55:20:760',2,0.933445,0.510789,1,1,0.5,1
686,'2026/05/31 15:55:20:796',2,0.933645,0.510742,1,1,0.5,1
687,'2026/05/31 15:55:20:825',2,0.933581,0.510164,1,1,0.5,1
688,'2026/05/31 15:55:20:857',2,0.933323,0.510095,1,1,0.5,1
689,'2026/05/31 15:55:20:891',2,0.933317,0.510036,1,1,0.5,1
690,'2026/05/31 15:55:20:925',2,0.933347,0.510279,1,1,0.5,1
691,'2026/05/31 15:55:20:957',2,0.933453,0.510537,1,1,0.5,1
692,'2026/05/31 15:55:20:991',2,0.934017,0.510534,1,1,0.5,1
693,'2026/05/31 15:55:21:024',2,0.934774,0.510096,1,1,0.5,1
694,'2026/05/31 15:55:21:057',2,0.93548,0.510228,1,1,0.5,1
695,'2026/05/31 15:55:21:091',2,0.935676,0.510267,1,1,0.5,1
696,'2026/05/31 15:55:21:124',2,0.935687,0.510657,1,1,0.5,1
697,'2026/05/31 15:55:21:157',2,0.935816,0.511143,1,1,0.5,1
698,'2026/05/31 15:55:21:191',2,0.935756,0.511425,1,1,0.5,1
699,'2026/05/31 15:55:21:224',2,0.935548,0.511994,1,1,0.5,1
700,'2026/05/31 15:55:21:258',2,0.93496,0.512496,1,1,0.5,1
701,'2026/05/31 15:55:21:291',2,0.934777,0.512523,1,1,0.5,1
702,'2026/05/31 15:55:21:324',2,0.934401,0.51256,1,1,0.5,1
703,'2026/05/31 15:55:21:358',2,0.93408,0.512853,1,1,0.5,1
704,'2026/05/31 15:55:21:391',2,0.933663,0.51321,1,1,0.5,1
705,'2026/05/31 15:55:21:424',2,0.933329,0.513316,1,1,0.5,1
706,'2026/05/31 15:55:21:457',2,0.932628,0.513531,1,1,0.5,1
707,'2026/05/31 15:55:21:491',2,0.93191,0.513768,1,1,0.5,1
708,'2026/05/31 15:55:21:524',2,0.930941,0.513636,1,1,0.5,1
709,'2026/05/31 15:55:21:557',2,0.930332,0.513698,1,1,0.5,1
710,'2026/05/31 15:55:21:591',2,0.929658,0.513822,1,1,0.5,1
711,'2026/05/31 15:55:21:624',2,0.929106,0.513633,1,1,0.5,1
712,'2026/05/31 15:55:21:657',2,0.928457,0.51397,1,1,0.5,1
713,'2026/05/31 15:55:21:691',2,0.927894,0.51382,1,1,0.5,1
714,'2026/05/31 15:55:21:724',2,0.92718,0.514354,1,1,0.5,1
715,'2026/05/31 15:55:21:757',2,0.926789,0.514281,1,1,0.5,1
716,'2026/05/31 15:55:21:790',2,0.926383,0.513823,1,1,0.5,1
717,'2026/05/31 15:55:21:825',2,0.925958,0.514056,1,1,0.5,1
718,'2026/05/31 15:55:21:859',2,0.925333,0.514169,1,1,0.5,1
719,'2026/05/31 15:55:21:897',2,0.924666,0.514555,1,1,0.5,1
720,'2026/05/31 15:55:21:926',2,0.924296,0.5154,1,1,0.5,1
721,'2026/05/31 15:55:21:962',2,0.923947,0.516186,1,1,0.5,1
722,'2026/05/31 15:55:21:994',2,0.923747,0.516286,1,1,0.5,1
723,'2026/05/31 15:55:22:026',2,0.923607,0.516676,1,1,0.5,1
724,'2026/05/31 15:55:22:060',2,0.923482,0.516584,1,1,0.5,1
725,'2026/05/31 15:55:22:095',2,0.923487,0.516431,1,1,0.5,1
726,'2026/05/31 15:55:22:128',2,0.923616,0.516209,1,1,0.5,1
727,'2026/05/31 15:55:22:160',2,0.923553,0.515803,1,1,0.5,1
728,'2026/05/31 15:55:22:194',2,0.92372,0.515654,1,1,0.5,1
729,'2026/05/31 15:55:22:226',2,0.924087,0.515374,1,1,0.5,1
730,'2026/05/31 15:55:22:262',2,0.924352,0.514873,1,1,0.5,1
731,'2026/05/31 15:55:22:294',2,0.924837,0.514336,1,1,0.5,1
732,'2026/05/31 15:55:22:326',2,0.924975,0.513941,1,1,0.5,1
733,'2026/05/31 15:55:22:363',2,0.925323,0.514077,1,1,0.5,1
734,'2026/05/31 15:55:22:392',2,0.925595,0.513211,1,1,0.5,1
735,'2026/05/31 15:55:22:427',2,0.925657,0.513493,1,1,0.5,1
736,'2026/05/31 15:55:22:460',2,0.925749,0.513097,1,1,0.5,1
737,'2026/05/31 15:55:22:495',2,0.925635,0.513178,1,1,0.5,1
738,'2026/05/31 15:55:22:528',2,0.925661,0.513191,1,1,0.5,1
739,'2026/05/31 15:55:22:559',2,0.92556,0.513221,1,1,0.5,1
740,'2026/05/31 15:55:22:596',2,0.925348,0.513573,1,1,0.5,1
741,'2026/05/31 15:55:22:626',2,0.925069,0.51351,1,1,0.5,1
742,'2026/05/31 15:55:22:662',2,0.924959,0.513673,1,1,0.5,1
743,'2026/05/31 15:55:22:691',2,0.924787,0.513876,1,1,0.5,1
744,'2026/05/31 15:55:22:727',2,0.924244,0.514533,1,1,0.5,1
745,'2026/05/31 15:55:22:760',2,0.923957,0.514399,1,1,0.5,1
746,'2026/05/31 15:55:22:792',2,0.923708,0.514568,1,1,0.5,1
747,'2026/05/31 15:55:22:826',2,0.923501,0.514995,1,1,0.5,1
748,'2026/05/31 15:55:22:858',2,0.923567,0.514835,1,1,0.5,1
749,'2026/05/31 15:55:22:892',2,0.923612,0.515182,1,1,0.5,1
750,'2026/05/31 15:55:22:927',2,0.923581,0.515073,1,1,0.5,1
751,'2026/05/31 15:55:22:960',2,0.923946,0.515242,1,1,0.5,1
752,'2026/05/31 15:55:22:990',2,0.923909,0.514928,1,1,0.5,1
753,'2026/05/31 15:55:23:023',2,0.923827,0.515259,1,1,0.5,1
754,'2026/05/31 15:55:23:055',2,0.923861,0.515515,1,1,0.5,1
755,'2026/05/31 15:55:23:090',2,0.923882,0.515521,1,1,0.5,1
756,'2026/05/31 15:55:23:123',2,0.923896,0.515602,1,1,0.5,1
757,'2026/05/31 15:55:23:156',2,0.923898,0.515829,1,1,0.5,1
758,'2026/05/31 15:55:23:190',2,0.923963,0.51611,1,1,0.5,1
759,'2026/05/31 15:55:23:223',2,0.923894,0.516244,1,1,0.5,1
760,'2026/05/31 15:55:23:257',2,0.923967,0.516574,1,1,0.5,1
761,'2026/05/31 15:55:23:290',2,0.923982,0.51701,1,1,0.5,1
762,'2026/05/31 15:55:23:323',2,0.923983,0.516981,1,1,0.5,1
763,'2026/05/31 15:55:23:357',2,0.923964,0.517098,1,1,0.5,1
764,'2026/05/31 15:55:23:395',2,0.924173,0.517146,1,1,0.5,1
765,'2026/05/31 15:55:23:427',2,0.924117,0.517516,1,1,0.5,1
766,'2026/05/31 15:55:23:462',2,0.92414,0.517497,1,1,0.5,1
767,'2026/05/31 15:55:23:494',2,0.924278,0.517355,1,1,0.5,1
768,'2026/05/31 15:55:23:527',2,0.924249,0.517062,1,1,0.5,1
769,'2026/05/31 15:55:23:561',2,0.924604,0.516437,1,1,0.5,1
770,'2026/05/31 15:55:23:593',2,0.924849,0.516365,1,1,0.5,1
771,'2026/05/31 15:55:23:624',2,0.924984,0.516108,1,1,0.5,1
772,'2026/05/31 15:55:23:656',2,0.925002,0.516381,1,1,0.5,1
773,'2026/05/31 15:55:23:689',2,0.924725,0.516534,1,1,0.5,1
774,'2026/05/31 15:55:23:727',2,0.924523,0.51628,1,1,0.5,1
775,'2026/05/31 15:55:23:760',2,0.924194,0.516853,1,1,0.5,1
776,'2026/05/31 15:55:23:794',2,0.924056,0.516688,1,1,0.5,1
777,'2026/05/31 15:55:23:826',2,0.924025,0.51694,1,1,0.5,1
778,'2026/05/31 15:55:23:862',2,0.924261,0.517145,1,1,0.5,1
779,'2026/05/31 15:55:23:892',2,0.92461,0.517442,1,1,0.5,1
780,'2026/05/31 15:55:23:928',2,0.924979,0.51761,1,1,0.5,1
781,'2026/05/31 15:55:23:960',2,0.925198,0.518062,1,1,0.5,1
782,'2026/05/31 15:55:23:993',2,0.925253,0.518316,1,1,0.5,1
783,'2026/05/31 15:55:24:028',2,0.925097,0.518794,1,1,0.5,1
784,'2026/05/31 15:55:24:059',2,0.924655,0.519054,1,1,0.5,1
785,'2026/05/31 15:55:24:096',2,0.924804,0.518887,1,1,0.5,1
786,'2026/05/31 15:55:24:126',2,0.924631,0.518967,1,1,0.5,1
787,'2026/05/31 15:55:24:162',2,0.924503,0.518932,1,1,0.5,1
788,'2026/05/31 15:55:24:192',2,0.924582,0.518644,1,1,0.5,1
789,'2026/05/31 15:55:24:227',2,0.92472,0.518268,1,1,0.5,1
790,'2026/05/31 15:55:24:260',2,0.924847,0.517791,1,1,0.5,1
791,'2026/05/31 15:55:24:290',2,0.925132,0.518013,1,1,0.5,1
792,'2026/05/31 15:55:24:327',2,0.925138,0.518182,1,1,0.5,1
793,'2026/05/31 15:55:24:360',2,0.925118,0.518314,1,1,0.5,1
794,'2026/05/31 15:55:24:394',2,0.925005,0.518546,1,1,0.5,1
795,'2026/05/31 15:55:24:429',2,0.92492,0.518572,1,1,0.5,1
796,'2026/05/31 15:55:24:460',2,0.924829,0.518956,1,1,0.5,1
797,'2026/05/31 15:55:24:496',2,0.924455,0.519012,1,1,0.5,1
798,'2026/05/31 15:55:24:526',2,0.92403,0.519001,1,1,0.5,1
799,'2026/05/31 15:55:24:562',2,0.923702,0.519069,1,1,0.5,1
800,'2026/05/31 15:55:24:591',2,0.923483,0.518917,1,1,0.5,1
801,'2026/05/31 15:55:24:627',2,0.923494,0.518669,1,1,0.5,1
802,'2026/05/31 15:55:24:661',2,0.923533,0.518434,1,1,0.5,1
803,'2026/05/31 15:55:24:725',2,0.923832,0.518063,1,1,0.5,1
804,'2026/05/31 15:55:24:759',2,0.923869,0.518516,1,1,0.5,1
805,'2026/05/31 15:55:24:794',2,0.924115,0.518422,1,1,0.5,1
806,'2026/05/31 15:55:24:828',2,0.924466,0.517327,1,1,0.5,1
807,'2026/05/31 15:55:24:860',2,0.924787,0.51726,1,1,0.5,1
808,'2026/05/31 15:55:24:891',2,0.924986,0.517282,1,1,0.5,1
809,'2026/05/31 15:55:24:926',2,0.925109,0.517275,1,1,0.5,1
810,'2026/05/31 15:55:24:956',2,0.925123,0.517177,1,1,0.5,1
811,'2026/05/31 15:55:24:994',2,0.924779,0.517498,1,1,0.5,1
812,'2026/05/31 15:55:25:028',2,0.924683,0.51725,1,1,0.5,1
813,'2026/05/31 15:55:25:061',2,0.924655,0.516737,1,1,0.5,1
814,'2026/05/31 15:55:25:094',2,0.924697,0.516836,1,1,0.5,1
815,'2026/05/31 15:55:25:128',2,0.924964,0.516245,1,1,0.5,1
816,'2026/05/31 15:55:25:160',2,0.925034,0.516212,1,1,0.5,1
817,'2026/05/31 15:55:25:194',2,0.925081,0.515997,1,1,0.5,1
818,'2026/05/31 15:55:25:227',2,0.925161,0.515836,1,1,0.5,1
819,'2026/05/31 15:55:25:260',2,0.925253,0.516011,1,1,0.5,1
820,'2026/05/31 15:55:25:294',2,0.925262,0.516137,1,1,0.5,1
821,'2026/05/31 15:55:25:327',2,0.925047,0.516412,1,1,0.5,1
822,'2026/05/31 15:55:25:360',2,0.924815,0.516845,1,1,0.5,1
823,'2026/05/31 15:55:25:394',2,0.924591,0.517317,1,1,0.5,1
824,'2026/05/31 15:55:25:428',2,0.924661,0.517126,1,1,0.5,1
825,'2026/05/31 15:55:25:461',2,0.924557,0.517273,1,1,0.5,1
826,'2026/05/31 15:55:25:494',2,0.924513,0.517596,1,1,0.5,1
827,'2026/05/31 15:55:25:527',2,0.924375,0.517655,1,1,0.5,1
828,'2026/05/31 15:55:25:560',2,0.924284,0.517818,1,1,0.5,1
829,'2026/05/31 15:55:25:593',2,0.924008,0.518136,1,1,0.5,1
830,'2026/05/31 15:55:25:627',2,0.923875,0.518446,1,1,0.5,1
831,'2026/05/31 15:55:25:660',2,0.923883,0.518668,1,1,0.5,1
832,'2026/05/31 15:55:25:693',2,0.923839,0.518852,1,1,0.5,1
833,'2026/05/31 15:55:25:726',2,0.923615,0.518938,1,1,0.5,1
834,'2026/05/31 15:55:25:762',2,0.923553,0.519073,1,1,0.5,1
835,'2026/05/31 15:55:25:793',2,0.923463,0.51894,1,1,0.5,1
836,'2026/05/31 15:55:25:828',2,0.9234,0.518823,1,1,0.5,1
837,'2026/05/31 15:55:25:861',2,0.923511,0.518882,1,1,0.5,1
838,'2026/05/31 15:55:25:893',2,0.923456,0.518871,1,1,0.5,1
839,'2026/05/31 15:55:25:930',2,0.923617,0.518665,1,1,0.5,1
840,'2026/05/31 15:55:25:960',2,0.923533,0.518846,1,1,0.5,1
841,'2026/05/31 15:55:25:991',2,0.923518,0.51854,1,1,0.5,1
842,'2026/05/31 15:55:26:029',2,0.923563,0.518197,1,1,0.5,1
843,'2026/05/31 15:55:26:060',2,0.923651,0.51831,1,1,0.5,1
844,'2026/05/31 15:55:26:094',2,0.923617,0.517809,1,1,0.5,1
845,'2026/05/31 15:55:26:127',2,0.923655,0.517784,1,1,0.5,1
846,'2026/05/31 15:55:26:162',2,0.923764,0.517815,1,1,0.5,1
847,'2026/05/31 15:55:26:193',2,0.92361,0.518023,1,1,0.5,1
848,'2026/05/31 15:55:26:228',2,0.923554,0.517719,1,1,0.5,1
849,'2026/05/31 15:55:26:260',2,0.923539,0.517781,1,1,0.5,1
850,'2026/05/31 15:55:26:293',2,0.923347,0.517895,1,1,0.5,1
851,'2026/05/31 15:55:26:329',2,0.923384,0.517533,1,1,0.5,1
852,'2026/05/31 15:55:26:359',2,0.923473,0.517019,1,1,0.5,1
853,'2026/05/31 15:55:26:395',2,0.923613,0.516474,1,1,0.5,1
854,'2026/05/31 15:55:26:426',2,0.923766,0.516292,1,1,0.5,1
855,'2026/05/31 15:55:26:462',2,0.924223,0.515957,1,1,0.5,1
856,'2026/05/31 15:55:26:494',2,0.924351,0.51579,1,1,0.5,1
857,'2026/05/31 15:55:26:528',2,0.924472,0.515519,1,1,0.5,1
858,'2026/05/31 15:55:26:562',2,0.924572,0.515339,1,1,0.5,1
859,'2026/05/31 15:55:26:593',2,0.924659,0.515498,1,1,0.5,1
860,'2026/05/31 15:55:26:627',2,0.924641,0.515618,1,1,0.5,1
861,'2026/05/31 15:55:26:661',2,0.924701,0.515788,1,1,0.5,1
862,'2026/05/31 15:55:26:694',2,0.924868,0.515618,1,1,0.5,1
863,'2026/05/31 15:55:26:727',2,0.9252,0.515418,1,1,0.5,1
864,'2026/05/31 15:55:26:757',2,0.925656,0.515125,1,1,0.5,1
865,'2026/05/31 15:55:26:791',2,0.926065,0.514738,1,1,0.5,1
866,'2026/05/31 15:55:26:824',2,0.926417,0.514333,1,1,0.5,1
867,'2026/05/31 15:55:26:857',2,0.926443,0.514536,1,1,0.5,1
868,'2026/05/31 15:55:26:896',2,0.926602,0.514704,1,1,0.5,1
869,'2026/05/31 15:55:26:926',2,0.926695,0.514583,1,1,0.5,1
870,'2026/05/31 15:55:26:963',2,0.926788,0.514901,1,1,0.5,1
871,'2026/05/31 15:55:26:993',2,0.926776,0.515481,1,1,0.5,1
872,'2026/05/31 15:55:27:029',2,0.926863,0.515939,1,1,0.5,1
873,'2026/05/31 15:55:27:060',2,0.926935,0.516095,1,1,0.5,1
874,'2026/05/31 15:55:27:094',2,0.926973,0.516122,1,1,0.5,1
875,'2026/05/31 15:55:27:127',2,0.926892,0.516284,1,1,0.5,1
876,'2026/05/31 15:55:27:161',2,0.926994,0.516456,1,1,0.5,1
877,'2026/05/31 15:55:27:195',2,0.927014,0.516391,1,1,0.5,1
878,'2026/05/31 15:55:27:226',2,0.927218,0.516099,1,1,0.5,1
879,'2026/05/31 15:55:27:263',2,0.927628,0.516104,1,1,0.5,1
880,'2026/05/31 15:55:27:293',2,0.927814,0.516029,1,1,0.5,1
881,'2026/05/31 15:55:27:328',2,0.927821,0.5161,1,1,0.5,1
882,'2026/05/31 15:55:27:361',2,0.927764,0.516393,1,1,0.5,1
883,'2026/05/31 15:55:27:394',2,0.927835,0.516337,1,1,0.5,1
884,'2026/05/31 15:55:27:429',2,0.927788,0.516255,1,1,0.5,1
885,'2026/05/31 15:55:27:459',2,0.927919,0.51664,1,1,0.5,1
886,'2026/05/31 15:55:27:495',2,0.927954,0.516918,1,1,0.5,1
887,'2026/05/31 15:55:27:526',2,0.927842,0.517017,1,1,0.5,1
888,'2026/05/31 15:55:27:561',2,0.927746,0.517277,1,1,0.5,1
889,'2026/05/31 15:55:27:594',2,0.927604,0.517206,1,1,0.5,1
890,'2026/05/31 15:55:27:628',2,0.927324,0.517173,1,1,0.5,1
891,'2026/05/31 15:55:27:662',2,0.927259,0.51714,1,1,0.5,1
892,'2026/05/31 15:55:27:694',2,0.927322,0.517214,1,1,0.5,1
893,'2026/05/31 15:55:27:728',2,0.927251,0.517307,1,1,0.5,1
894,'2026/05/31 15:55:27:761',2,0.927244,0.517277,1,1,0.5,1
895,'2026/05/31 15:55:27:794',2,0.927121,0.517425,1,1,0.5,1
896,'2026/05/31 15:55:27:827',2,0.927123,0.517493,1,1,0.5,1
897,'2026/05/31 15:55:27:860',2,0.927143,0.517224,1,1,0.5,1
898,'2026/05/31 15:55:27:894',2,0.927285,0.517523,1,1,0.5,1
899,'2026/05/31 15:55:27:926',2,0.927347,0.517415,1,1,0.5,1
900,'2026/05/31 15:55:27:962',2,0.927203,0.517377,1,1,0.5,1
901,'2026/05/31 15:55:27:994',2,0.927168,0.517493,1,1,0.5,1
902,'2026/05/31 15:55:28:025',2,0.927208,0.517534,1,1,0.5,1
903,'2026/05/31 15:55:28:059',2,0.92722,0.517632,1,1,0.5,1
904,'2026/05/31 15:55:28:091',2,0.927139,0.517534,1,1,0.5,1
905,'2026/05/31 15:55:28:128',2,0.927188,0.517426,1,1,0.5,1
906,'2026/05/31 15:55:28:160',2,0.927239,0.517536,1,1,0.5,1
907,'2026/05/31 15:55:28:194',2,0.927314,0.517856,1,1,0.5,1
908,'2026/05/31 15:55:28:228',2,0.927453,0.518017,1,1,0.5,1
909,'2026/05/31 15:55:28:260',2,0.927653,0.518028,1,1,0.5,1
910,'2026/05/31 15:55:28:296',2,0.927681,0.51827,1,1,0.5,1
911,'2026/05/31 15:55:28:326',2,0.927727,0.518483,1,1,0.5,1
912,'2026/05/31 15:55:28:362',2,0.927656,0.518507,1,1,0.5,1
913,'2026/05/31 15:55:28:393',2,0.927829,0.518378,1,1,0.5,1
914,'2026/05/31 15:55:28:429',2,0.927983,0.518173,1,1,0.5,1
915,'2026/05/31 15:55:28:461',2,0.928028,0.518494,1,1,0.5,1
916,'2026/05/31 15:55:28:494',2,0.928027,0.518702,1,1,0.5,1
917,'2026/05/31 15:55:28:530',2,0.928031,0.518675,1,1,0.5,1
918,'2026/05/31 15:55:28:560',2,0.928116,0.518593,1,1,0.5,1
919,'2026/05/31 15:55:28:595',2,0.928028,0.518646,1,1,0.5,1
920,'2026/05/31 15:55:28:627',2,0.927936,0.518633,1,1,0.5,1
921,'2026/05/31 15:55:28:660',2,0.927797,0.518764,1,1,0.5,1
922,'2026/05/31 15:55:28:696',2,0.927891,0.51889,1,1,0.5,1
923,'2026/05/31 15:55:28:729',2,0.928185,0.518278,1,1,0.5,1
924,'2026/05/31 15:55:28:759',2,0.928383,0.518058,1,1,0.5,1
925,'2026/05/31 15:55:28:795',2,0.92859,0.518099,1,1,0.5,1
926,'2026/05/31 15:55:28:828',2,0.928597,0.517777,1,1,0.5,1
927,'2026/05/31 15:55:28:861',2,0.928479,0.517824,1,1,0.5,1
928,'2026/05/31 15:55:28:894',2,0.92854,0.518009,1,1,0.5,1
929,'2026/05/31 15:55:28:929',2,0.92856,0.517719,1,1,0.5,1
930,'2026/05/31 15:55:28:960',2,0.928509,0.517518,1,1,0.5,1
931,'2026/05/31 15:55:28:995',2,0.928559,0.51774,1,1,0.5,1
932,'2026/05/31 15:55:29:026',2,0.928665,0.517803,1,1,0.5,1
933,'2026/05/31 15:55:29:062',2,0.928604,0.518013,1,1,0.5,1
934,'2026/05/31 15:55:29:094',2,0.928722,0.517556,1,1,0.5,1
935,'2026/05/31 15:55:29:124',2,0.928705,0.517484,1,1,0.5,1
936,'2026/05/31 15:55:29:163',2,0.928686,0.517592,1,1,0.5,1
937,'2026/05/31 15:55:29:193',2,0.928639,0.517512,1,1,0.5,1
938,'2026/05/31 15:55:29:227',2,0.928662,0.51745,1,1,0.5,1
939,'2026/05/31 15:55:29:261',2,0.928658,0.517529,1,1,0.5,1
940,'2026/05/31 15:55:29:294',2,0.928612,0.517497,1,1,0.5,1
941,'2026/05/31 15:55:29:329',2,0.928479,0.517596,1,1,0.5,1
942,'2026/05/31 15:55:29:360',2,0.928415,0.517561,1,1,0.5,1
943,'2026/05/31 15:55:29:396',2,0.928252,0.518029,1,1,0.5,1
944,'2026/05/31 15:55:29:427',2,0.928005,0.518236,1,1,0.5,1
945,'2026/05/31 15:55:29:461',2,0.927951,0.518208,1,1,0.5,1
946,'2026/05/31 15:55:29:495',2,0.927789,0.518439,1,1,0.5,1
947,'2026/05/31 15:55:29:528',2,0.927643,0.51849,1,1,0.5,1
948,'2026/05/31 15:55:29:563',2,0.927645,0.518517,1,1,0.5,1
949,'2026/05/31 15:55:29:593',2,0.927531,0.518437,1,1,0.5,1
950,'2026/05/31 15:55:29:628',2,0.927319,0.518359,1,1,0.5,1
951,'2026/05/31 15:55:29:661',2,0.927307,0.518263,1,1,0.5,1
952,'2026/05/31 15:55:29:693',2,0.927385,0.517997,1,1,0.5,1
953,'2026/05/31 15:55:29:729',2,0.927545,0.517783,1,1,0.5,1
954,'2026/05/31 15:55:29:760',2,0.927523,0.517985,1,1,0.5,1
955,'2026/05/31 15:55:29:797',2,0.927669,0.517919,1,1,0.5,1
956,'2026/05/31 15:55:29:826',2,0.927314,0.517743,1,1,0.5,1
957,'2026/05/31 15:55:29:862',2,0.927114,0.517921,1,1,0.5,1
958,'2026/05/31 15:55:29:894',2,0.926952,0.517949,1,1,0.5,1
959,'2026/05/31 15:55:29:928',2,0.927066,0.517587,1,1,0.5,1
960,'2026/05/31 15:55:29:962',2,0.927109,0.517522,1,1,0.5,1
961,'2026/05/31 15:55:29:993',2,0.927216,0.517449,1,1,0.5,1
962,'2026/05/31 15:55:30:030',2,0.927349,0.51737,1,1,0.5,1
963,'2026/05/31 15:55:30:059',2,0.927317,0.517917,1,1,0.5,1
964,'2026/05/31 15:55:30:095',2,0.927129,0.51858,1,1,0.5,1
965,'2026/05/31 15:55:30:126',2,0.926695,0.519476,1,1,0.5,1
966,'2026/05/31 15:55:30:162',2,0.926377,0.520362,1,1,0.5,1
967,'2026/05/31 15:55:30:194',2,0.926117,0.52178,1,1,0.5,1
968,'2026/05/31 15:55:30:228',2,0.925752,0.522459,1,1,0.5,1
969,'2026/05/31 15:55:30:262',2,0.925801,0.523203,1,1,0.5,1
970,'2026/05/31 15:55:30:293',2,0.925621,0.523903,1,1,0.5,1
971,'2026/05/31 15:55:30:328',2,0.925622,0.524104,1,1,0.5,1
972,'2026/05/31 15:55:30:361',2,0.925545,0.524146,1,1,0.5,1
973,'2026/05/31 15:55:30:396',2,0.925616,0.524035,1,1,0.5,1
974,'2026/05/31 15:55:30:428',2,0.925702,0.523778,1,1,0.5,1
975,'2026/05/31 15:55:30:462',2,0.926051,0.523451,1,1,0.5,1
976,'2026/05/31 15:55:30:494',2,0.92635,0.523025,1,1,0.5,1
977,'2026/05/31 15:55:30:528',2,0.926801,0.522997,1,1,0.5,1
978,'2026/05/31 15:55:30:560',2,0.927086,0.522571,1,1,0.5,1
979,'2026/05/31 15:55:30:594',2,0.927136,0.522721,1,1,0.5,1
980,'2026/05/31 15:55:30:628',2,0.92716,0.522889,1,1,0.5,1
981,'2026/05/31 15:55:30:662',2,0.92719,0.523306,1,1,0.5,1
982,'2026/05/31 15:55:30:694',2,0.927032,0.523775,1,1,0.5,1
983,'2026/05/31 15:55:30:729',2,0.927038,0.52436,1,1,0.5,1
984,'2026/05/31 15:55:30:760',2,0.926751,0.524786,1,1,0.5,1
985,'2026/05/31 15:55:30:795',2,0.926732,0.524914,1,1,0.5,1
986,'2026/05/31 15:55:30:828',2,0.926793,0.524757,1,1,0.5,1
987,'2026/05/31 15:55:30:861',2,0.927037,0.524516,1,1,0.5,1
988,'2026/05/31 15:55:30:896',2,0.927123,0.524508,1,1,0.5,1
989,'2026/05/31 15:55:30:927',2,0.927175,0.524854,1,1,0.5,1
990,'2026/05/31 15:55:30:962',2,0.927339,0.524753,1,1,0.5,1
991,'2026/05/31 15:55:30:993',2,0.92732,0.524793,1,1,0.5,1
992,'2026/05/31 15:55:31:026',2,0.927409,0.524808,1,1,0.5,1
993,'2026/05/31 15:55:31:062',2,0.927355,0.524916,1,1,0.5,1
994,'2026/05/31 15:55:31:094',2,0.927061,0.525365,1,1,0.5,1
995,'2026/05/31 15:55:31:130',2,0.926456,0.526148,1,1,0.5,1
996,'2026/05/31 15:55:31:160',2,0.926355,0.526685,1,1,0.5,1
997,'2026/05/31 15:55:31:194',2,0.926219,0.52686,1,1,0.5,1
998,'2026/05/31 15:55:31:229',2,0.92628,0.527886,1,1,0.5,1
999,'2026/05/31 15:55:31:261',2,0.926465,0.528487,1,1,0.5,1
1000,'2026/05/31 15:55:31:296',2,0.926742,0.528491,1,1,0.5,1
1001,'2026/05/31 15:55:31:326',2,0.926931,0.528126,1,1,0.5,1
1002,'2026/05/31 15:55:31:358',2,0.927188,0.527948,1,1,0.5,1
1003,'2026/05/31 15:55:31:391',2,0.927216,0.52782,1,1,0.5,1
1004,'2026/05/31 15:55:31:424',2,0.92709,0.527347,1,1,0.5,1
1005,'2026/05/31 15:55:31:457',2,0.926728,0.527545,1,1,0.5,1
1006,'2026/05/31 15:55:31:490',2,0.926069,0.527389,1,1,0.5,1
1007,'2026/05/31 15:55:31:523',2,0.925491,0.527395,1,1,0.5,1
1008,'2026/05/31 15:55:31:557',2,0.924519,0.527608,1,1,0.5,1
1009,'2026/05/31 15:55:31:592',2,0.923724,0.528024,1,1,0.5,1
1010,'2026/05/31 15:55:31:625',2,0.923213,0.527838,1,1,0.5,1
1011,'2026/05/31 15:55:31:658',2,0.923216,0.527678,1,1,0.5,1
1012,'2026/05/31 15:55:31:692',2,0.923045,0.527844,1,1,0.5,1
1013,'2026/05/31 15:55:31:725',2,0.922619,0.528414,1,1,0.5,1
1014,'2026/05/31 15:55:31:758',2,0.922179,0.528539,1,1,0.5,1
1015,'2026/05/31 15:55:31:790',2,0.922331,0.529039,1,1,0.5,1
1016,'2026/05/31 15:55:31:824',2,0.922328,0.529765,1,1,0.5,1
1017,'2026/05/31 15:55:31:858',2,0.923005,0.530037,1,1,0.5,1
1018,'2026/05/31 15:55:31:891',2,0.924327,0.530168,1,1,0.5,1
1019,'2026/05/31 15:55:31:925',2,0.92551,0.530141,1,1,0.5,1
1020,'2026/05/31 15:55:31:958',2,0.926351,0.530038,1,1,0.5,1
1021,'2026/05/31 15:55:31:992',2,0.926573,0.529387,1,1,0.5,1
1022,'2026/05/31 15:55:32:025',2,0.92664,0.529925,1,1,0.5,1
1023,'2026/05/31 15:55:32:058',2,0.926437,0.530941,1,1,0.5,1
1024,'2026/05/31 15:55:32:091',2,0.926018,0.532197,1,1,0.5,1
1025,'2026/05/31 15:55:32:124',2,0.925294,0.533116,1,1,0.5,1
1026,'2026/05/31 15:55:32:158',2,0.925157,0.534698,1,1,0.5,1
1027,'2026/05/31 15:55:32:191',2,0.925001,0.536352,1,1,0.5,1
1028,'2026/05/31 15:55:32:224',2,0.924158,0.53861,1,1,0.5,1
1029,'2026/05/31 15:55:32:257',2,0.923661,0.539349,1,1,0.5,1
1030,'2026/05/31 15:55:32:292',2,0.923097,0.540023,1,1,0.5,1
1031,'2026/05/31 15:55:32:326',2,0.92265,0.540268,1,1,0.5,1
1032,'2026/05/31 15:55:32:358',2,0.92264,0.540064,1,1,0.5,1
1033,'2026/05/31 15:55:32:397',2,0.922425,0.5402,1,1,0.5,1
1034,'2026/05/31 15:55:32:464',2,0.922241,0.540112,1,1,0.5,1
1035,'2026/05/31 15:55:32:493',2,0.921985,0.540156,1,1,0.5,1
1036,'2026/05/31 15:55:32:529',2,0.921753,0.540439,1,1,0.5,1
1037,'2026/05/31 15:55:32:561',2,0.921335,0.541158,1,1,0.5,1
1038,'2026/05/31 15:55:32:596',2,0.920949,0.541208,1,1,0.5,1
1039,'2026/05/31 15:55:32:629',2,0.920739,0.541558,1,1,0.5,1
1040,'2026/05/31 15:55:32:661',2,0.920662,0.5414,1,1,0.5,1
1041,'2026/05/31 15:55:32:696',2,0.920552,0.541895,1,1,0.5,1
1042,'2026/05/31 15:55:32:727',2,0.920484,0.541813,1,1,0.5,1
1043,'2026/05/31 15:55:32:758',2,0.920574,0.541962,1,1,0.5,1
1044,'2026/05/31 15:55:32:795',2,0.920807,0.541587,1,1,0.5,1
1045,'2026/05/31 15:55:32:826',2,0.921211,0.542028,1,1,0.5,1
1046,'2026/05/31 15:55:32:860',2,0.921905,0.54197,1,1,0.5,1
1047,'2026/05/31 15:55:32:895',2,0.922499,0.541488,1,1,0.5,1
1048,'2026/05/31 15:55:32:927',2,0.922859,0.541818,1,1,0.5,1
1049,'2026/05/31 15:55:32:961',2,0.922997,0.541716,1,1,0.5,1
1050,'2026/05/31 15:55:32:994',2,0.922886,0.541857,1,1,0.5,1
1051,'2026/05/31 15:55:33:028',2,0.92285,0.541979,1,1,0.5,1
1052,'2026/05/31 15:55:33:061',2,0.92268,0.542456,1,1,0.5,1
1053,'2026/05/31 15:55:33:096',2,0.922536,0.542751,1,1,0.5,1
1054,'2026/05/31 15:55:33:126',2,0.922416,0.542705,1,1,0.5,1
1055,'2026/05/31 15:55:33:162',2,0.922285,0.543145,1,1,0.5,1
1056,'2026/05/31 15:55:33:194',2,0.922065,0.54301,1,1,0.5,1
1057,'2026/05/31 15:55:33:228',2,0.922151,0.543479,1,1,0.5,1
1058,'2026/05/31 15:55:33:261',2,0.922132,0.543422,1,1,0.5,1
1059,'2026/05/31 15:55:33:294',2,0.92234,0.543625,1,1,0.5,1
1060,'2026/05/31 15:55:33:329',2,0.92266,0.54387,1,1,0.5,1
1061,'2026/05/31 15:55:33:360',2,0.922951,0.543674,1,1,0.5,1
1062,'2026/05/31 15:55:33:395',2,0.923191,0.543315,1,1,0.5,1
1063,'2026/05/31 15:55:33:427',2,0.923806,0.542624,1,1,0.5,1
1064,'2026/05/31 15:55:33:461',2,0.924527,0.541279,1,1,0.5,1
1065,'2026/05/31 15:55:33:491',2,0.925451,0.540137,1,1,0.5,1
1066,'2026/05/31 15:55:33:524',2,0.926192,0.537998,1,1,0.5,1
1067,'2026/05/31 15:55:33:557',2,0.926483,0.536869,1,1,0.5,1
1068,'2026/05/31 15:55:33:591',2,0.926781,0.535617,1,1,0.5,1
1069,'2026/05/31 15:55:33:623',2,0.926699,0.535263,1,1,0.5,1
1070,'2026/05/31 15:55:33:658',2,0.926478,0.535423,1,1,0.5,1
1071,'2026/05/31 15:55:33:691',2,0.925918,0.535686,1,1,0.5,1
1072,'2026/05/31 15:55:33:724',2,0.925365,0.535688,1,1,0.5,1
1073,'2026/05/31 15:55:33:756',2,0.923843,0.536584,1,1,0.5,1
1074,'2026/05/31 15:55:33:790',2,0.9217,0.537811,1,1,0.5,1
1075,'2026/05/31 15:55:33:824',2,0.919807,0.538491,1,1,0.5,1
1076,'2026/05/31 15:55:33:856',2,0.917766,0.539372,1,1,0.5,1
1077,'2026/05/31 15:55:33:896',2,0.916104,0.539467,1,1,0.5,1
1078,'2026/05/31 15:55:33:928',2,0.9155,0.538352,1,1,0.5,1
1079,'2026/05/31 15:55:33:962',2,0.916597,0.534647,1,1,0.5,1
1080,'2026/05/31 15:55:33:994',2,0.917587,0.530836,1,1,0.5,1
1081,'2026/05/31 15:55:34:028',2,0.918671,0.527269,1,1,0.5,1
1082,'2026/05/31 15:55:34:062',2,0.918959,0.524801,1,1,0.5,1
1083,'2026/05/31 15:55:34:093',2,0.918853,0.523037,1,1,0.5,1
1084,'2026/05/31 15:55:34:129',2,0.918222,0.522357,1,1,0.5,1
1085,'2026/05/31 15:55:34:161',2,0.917418,0.522766,1,1,0.5,1
1086,'2026/05/31 15:55:34:196',2,0.916653,0.522758,1,1,0.5,1
1087,'2026/05/31 15:55:34:228',2,0.915367,0.523333,1,1,0.5,1
1088,'2026/05/31 15:55:34:260',2,0.914175,0.523666,1,1,0.5,1
1089,'2026/05/31 15:55:34:295',2,0.912914,0.523568,1,1,0.5,1
1090,'2026/05/31 15:55:34:328',2,0.91197,0.523531,1,1,0.5,1
1091,'2026/05/31 15:55:34:363',2,0.911503,0.522827,1,1,0.5,1
1092,'2026/05/31 15:55:34:394',2,0.911338,0.522376,1,1,0.5,1
1093,'2026/05/31 15:55:34:429',2,0.910901,0.522233,1,1,0.5,1
1094,'2026/05/31 15:55:34:460',2,0.910519,0.522336,1,1,0.5,1
1095,'2026/05/31 15:55:34:494',2,0.909983,0.521622,1,1,0.5,1
1096,'2026/05/31 15:55:34:528',2,0.909411,0.521076,1,1,0.5,1
1097,'2026/05/31 15:55:34:563',2,0.908977,0.520117,1,1,0.5,1
1098,'2026/05/31 15:55:34:596',2,0.90846,0.519841,1,1,0.5,1
1099,'2026/05/31 15:55:34:627',2,0.908325,0.519122,1,1,0.5,1
1100,'2026/05/31 15:55:34:662',2,0.908495,0.518871,1,1,0.5,1
1101,'2026/05/31 15:55:34:690',2,0.908669,0.518513,1,1,0.5,1
1102,'2026/05/31 15:55:34:727',2,0.908771,0.518592,1,1,0.5,1
1103,'2026/05/31 15:55:34:760',2,0.908928,0.518312,1,1,0.5,1
1104,'2026/05/31 15:55:34:790',2,0.908907,0.518608,1,1,0.5,1
1105,'2026/05/31 15:55:34:823',2,0.908561,0.519544,1,1,0.5,1
1106,'2026/05/31 15:55:34:858',2,0.908155,0.520368,1,1,0.5,1
1107,'2026/05/31 15:55:34:893',2,0.907893,0.521162,1,1,0.5,1
1108,'2026/05/31 15:55:34:925',2,0.907583,0.521935,1,1,0.5,1
1109,'2026/05/31 15:55:34:958',2,0.906999,0.522405,1,1,0.5,1
1110,'2026/05/31 15:55:34:990',2,0.906648,0.522261,1,1,0.5,1
1111,'2026/05/31 15:55:35:028',2,0.90631,0.522283,1,1,0.5,1
1112,'2026/05/31 15:55:35:058',2,0.906338,0.522463,1,1,0.5,1
1113,'2026/05/31 15:55:35:096',2,0.906338,0.522482,1,1,0.5,1
1114,'2026/05/31 15:55:35:126',2,0.90596,0.522378,1,1,0.5,1
1115,'2026/05/31 15:55:35:159',2,0.905426,0.521975,1,1,0.5,1
1116,'2026/05/31 15:55:35:195',2,0.904915,0.521781,1,1,0.5,1
1117,'2026/05/31 15:55:35:227',2,0.904358,0.521571,1,1,0.5,1
1118,'2026/05/31 15:55:35:261',2,0.904271,0.521528,1,1,0.5,1
1119,'2026/05/31 15:55:35:296',2,0.904264,0.521425,1,1,0.5,1
1120,'2026/05/31 15:55:35:328',2,0.904133,0.521567,1,1,0.5,1
1121,'2026/05/31 15:55:35:361',2,0.904115,0.52133,1,1,0.5,1
1122,'2026/05/31 15:55:35:394',2,0.903973,0.521148,1,1,0.5,1
1123,'2026/05/31 15:55:35:428',2,0.90379,0.521182,1,1,0.5,1
1124,'2026/05/31 15:55:35:462',2,0.903703,0.521321,1,1,0.5,1
1125,'2026/05/31 15:55:35:493',2,0.9036,0.521909,1,1,0.5,1
1126,'2026/05/31 15:55:35:530',2,0.903638,0.522317,1,1,0.5,1
1127,'2026/05/31 15:55:35:559',2,0.903545,0.522878,1,1,0.5,1
1128,'2026/05/31 15:55:35:593',2,0.903265,0.523867,1,1,0.5,1
1129,'2026/05/31 15:55:35:627',2,0.903176,0.524965,1,1,0.5,1
1130,'2026/05/31 15:55:35:663',2,0.903305,0.525837,1,1,0.5,1
1131,'2026/05/31 15:55:35:695',2,0.903354,0.52686,1,1,0.5,1
1132,'2026/05/31 15:55:35:728',2,0.903299,0.527827,1,1,0.5,1
1133,'2026/05/31 15:55:35:760',2,0.903442,0.52815,1,1,0.5,1
1134,'2026/05/31 15:55:35:793',2,0.9035,0.528501,1,1,0.5,1
1135,'2026/05/31 15:55:35:828',2,0.903795,0.529137,1,1,0.5,1
1136,'2026/05/31 15:55:35:861',2,0.904182,0.530015,1,1,0.5,1
1137,'2026/05/31 15:55:35:895',2,0.904319,0.530115,1,1,0.5,1
1138,'2026/05/31 15:55:35:929',2,0.904716,0.53072,1,1,0.5,1
1139,'2026/05/31 15:55:35:961',2,0.90494,0.530918,1,1,0.5,1
1140,'2026/05/31 15:55:35:996',2,0.905483,0.530855,1,1,0.5,1
1141,'2026/05/31 15:55:36:027',2,0.906154,0.53021,1,1,0.5,1
1142,'2026/05/31 15:55:36:062',2,0.906816,0.529383,1,1,0.5,1
1143,'2026/05/31 15:55:36:095',2,0.907363,0.528135,1,1,0.5,1
1144,'2026/05/31 15:55:36:128',2,0.90764,0.527348,1,1,0.5,1
1145,'2026/05/31 15:55:36:162',2,0.907704,0.527609,1,1,0.5,1
1146,'2026/05/31 15:55:36:194',2,0.907655,0.527446,1,1,0.5,1
1147,'2026/05/31 15:55:36:229',2,0.907731,0.527356,1,1,0.5,1
1148,'2026/05/31 15:55:36:260',2,0.907741,0.527952,1,1,0.5,1
1149,'2026/05/31 15:55:36:296',2,0.907561,0.528535,1,1,0.5,1
1150,'2026/05/31 15:55:36:327',2,0.907144,0.529326,1,1,0.5,1
1151,'2026/05/31 15:55:36:362',2,0.906797,0.529864,1,1,0.5,1
1152,'2026/05/31 15:55:36:395',2,0.90637,0.531217,1,1,0.5,1
1153,'2026/05/31 15:55:36:428',2,0.905712,0.53164,1,1,0.5,1
1154,'2026/05/31 15:55:36:462',2,0.905517,0.532116,1,1,0.5,1
1155,'2026/05/31 15:55:36:494',2,0.905402,0.532419,1,1,0.5,1
1156,'2026/05/31 15:55:36:528',2,0.905312,0.53268,1,1,0.5,1
1157,'2026/05/31 15:55:36:561',2,0.905139,0.532585,1,1,0.5,1
1158,'2026/05/31 15:55:36:595',2,0.905059,0.532292,1,1,0.5,1
1159,'2026/05/31 15:55:36:629',2,0.905134,0.531992,1,1,0.5,1
1160,'2026/05/31 15:55:36:662',2,0.905156,0.531319,1,1,0.5,1
1161,'2026/05/31 15:55:36:696',2,0.905174,0.530266,1,1,0.5,1
1162,'2026/05/31 15:55:36:727',2,0.905309,0.529686,1,1,0.5,1
1163,'2026/05/31 15:55:36:759',2,0.905223,0.529642,1,1,0.5,1
1164,'2026/05/31 15:55:36:793',2,0.905293,0.529284,1,1,0.5,1
1165,'2026/05/31 15:55:36:826',2,0.905261,0.529251,1,1,0.5,1
1166,'2026/05/31 15:55:36:862',2,0.905178,0.529322,1,1,0.5,1
1167,'2026/05/31 15:55:36:894',2,0.905018,0.530031,1,1,0.5,1
1168,'2026/05/31 15:55:36:928',2,0.90457,0.530114,1,1,0.5,1
1169,'2026/05/31 15:55:36:960',2,0.904151,0.530097,1,1,0.5,1
1170,'2026/05/31 15:55:36:995',2,0.903904,0.530074,1,1,0.5,1
1171,'2026/05/31 15:55:37:029',2,0.903816,0.530212,1,1,0.5,1
1172,'2026/05/31 15:55:37:062',2,0.903787,0.530172,1,1,0.5,1
1173,'2026/05/31 15:55:37:096',2,0.903766,0.530379,1,1,0.5,1
1174,'2026/05/31 15:55:37:127',2,0.903959,0.53061,1,1,0.5,1
1175,'2026/05/31 15:55:37:161',2,0.903954,0.531193,1,1,0.5,1
1176,'2026/05/31 15:55:37:194',2,0.903759,0.531964,1,1,0.5,1
1177,'2026/05/31 15:55:37:228',2,0.903557,0.532521,1,1,0.5,1
1178,'2026/05/31 15:55:37:262',2,0.903297,0.532913,1,1,0.5,1
1179,'2026/05/31 15:55:37:294',2,0.903213,0.533208,1,1,0.5,1
1180,'2026/05/31 15:55:37:330',2,0.903227,0.533958,1,1,0.5,1
1181,'2026/05/31 15:55:37:360',2,0.903315,0.534073,1,1,0.5,1
1182,'2026/05/31 15:55:37:394',2,0.903416,0.534511,1,1,0.5,1
1183,'2026/05/31 15:55:37:429',2,0.90366,0.535067,1,1,0.5,1
1184,'2026/05/31 15:55:37:461',2,0.904013,0.535528,1,1,0.5,1
1185,'2026/05/31 15:55:37:496',2,0.90433,0.53555,1,1,0.5,1
1186,'2026/05/31 15:55:37:527',2,0.904638,0.536223,1,1,0.5,1
1187,'2026/05/31 15:55:37:562',2,0.904884,0.535868,1,1,0.5,1
1188,'2026/05/31 15:55:37:594',2,0.90504,0.535643,1,1,0.5,1
1189,'2026/05/31 15:55:37:628',2,0.905255,0.535145,1,1,0.5,1
1190,'2026/05/31 15:55:37:662',2,0.905719,0.535106,1,1,0.5,1
1191,'2026/05/31 15:55:37:695',2,0.906119,0.534939,1,1,0.5,1
1192,'2026/05/31 15:55:37:731',2,0.906263,0.535046,1,1,0.5,1
1193,'2026/05/31 15:55:37:761',2,0.906319,0.53479,1,1,0.5,1
1194,'2026/05/31 15:55:37:795',2,0.906234,0.535106,1,1,0.5,1
1195,'2026/05/31 15:55:37:828',2,0.906269,0.535098,1,1,0.5,1
1196,'2026/05/31 15:55:37:863',2,0.906243,0.535364,1,1,0.5,1
1197,'2026/05/31 15:55:37:894',2,0.906195,0.535858,1,1,0.5,1
1198,'2026/05/31 15:55:37:928',2,0.906102,0.536459,1,1,0.5,1
1199,'2026/05/31 15:55:37:962',2,0.90605,0.537054,1,1,0.5,1
1200,'2026/05/31 15:55:37:995',2,0.905823,0.537643,1,1,0.5,1
1201,'2026/05/31 15:55:38:029',2,0.9057,0.538861,1,1,0.5,1
1202,'2026/05/31 15:55:38:060',2,0.905671,0.539106,1,1,0.5,1
1203,'2026/05/31 15:55:38:095',2,0.905818,0.53938,1,1,0.5,1
1204,'2026/05/31 15:55:38:129',2,0.905827,0.539735,1,1,0.5,1
1205,'2026/05/31 15:55:38:163',2,0.905893,0.539874,1,1,0.5,1
1206,'2026/05/31 15:55:38:195',2,0.905747,0.540164,1,1,0.5,1
1207,'2026/05/31 15:55:38:228',2,0.905789,0.541062,1,1,0.5,1
1208,'2026/05/31 15:55:38:262',2,0.906036,0.541817,1,1,0.5,1
1209,'2026/05/31 15:55:38:294',2,0.906621,0.542113,1,1,0.5,1
1210,'2026/05/31 15:55:38:329',2,0.907333,0.542377,1,1,0.5,1
1211,'2026/05/31 15:55:38:362',2,0.907834,0.542594,1,1,0.5,1
1212,'2026/05/31 15:55:38:396',2,0.908,0.542688,1,1,0.5,1
1213,'2026/05/31 15:55:38:427',2,0.908023,0.542332,1,1,0.5,1
1214,'2026/05/31 15:55:38:460',2,0.908124,0.542041,1,1,0.5,1
1215,'2026/05/31 15:55:38:495',2,0.908461,0.541194,1,1,0.5,1
1216,'2026/05/31 15:55:38:528',2,0.909024,0.540968,1,1,0.5,1
1217,'2026/05/31 15:55:38:558',2,0.909635,0.541106,1,1,0.5,1
1218,'2026/05/31 15:55:38:592',2,0.909967,0.541,1,1,0.5,1
1219,'2026/05/31 15:55:38:624',2,0.910077,0.541071,1,1,0.5,1
1220,'2026/05/31 15:55:38:658',2,0.910034,0.540881,1,1,0.5,1
1221,'2026/05/31 15:55:38:696',2,0.90993,0.540673,1,1,0.5,1
1222,'2026/05/31 15:55:38:728',2,0.909943,0.540572,1,1,0.5,1
1223,'2026/05/31 15:55:38:761',2,0.909901,0.540268,1,1,0.5,1
1224,'2026/05/31 15:55:38:793',2,0.90977,0.540467,1,1,0.5,1
1225,'2026/05/31 15:55:38:829',2,0.909771,0.540604,1,1,0.5,1
1226,'2026/05/31 15:55:38:861',2,0.909561,0.540626,1,1,0.5,1
1227,'2026/05/31 15:55:38:896',2,0.909349,0.540802,1,1,0.5,1
1228,'2026/05/31 15:55:38:929',2,0.909091,0.541137,1,1,0.5,1
1229,'2026/05/31 15:55:38:962',2,0.908899,0.541284,1,1,0.5,1
1230,'2026/05/31 15:55:38:995',2,0.908834,0.541477,1,1,0.5,1
1231,'2026/05/31 15:55:39:028',2,0.908612,0.541749,1,1,0.5,1
1232,'2026/05/31 15:55:39:062',2,0.908366,0.542152,1,1,0.5,1
1233,'2026/05/31 15:55:39:095',2,0.908027,0.542675,1,1,0.5,1
1234,'2026/05/31 15:55:39:129',2,0.907794,0.543053,1,1,0.5,1
1235,'2026/05/31 15:55:39:161',2,0.907596,0.543193,1,1,0.5,1
1236,'2026/05/31 15:55:39:196',2,0.907347,0.543522,1,1,0.5,1
1237,'2026/05/31 15:55:39:228',2,0.906992,0.543783,1,1,0.5,1
1238,'2026/05/31 15:55:39:262',2,0.906619,0.544344,1,1,0.5,1
1239,'2026/05/31 15:55:39:296',2,0.906447,0.544626,1,1,0.5,1
1240,'2026/05/31 15:55:39:327',2,0.906218,0.544981,1,1,0.5,1
1241,'2026/05/31 15:55:39:361',2,0.905979,0.545244,1,1,0.5,1
1242,'2026/05/31 15:55:39:396',2,0.905769,0.54521,1,1,0.5,1
1243,'2026/05/31 15:55:39:430',2,0.905782,0.545289,1,1,0.5,1
1244,'2026/05/31 15:55:39:462',2,0.905783,0.545247,1,1,0.5,1
1245,'2026/05/31 15:55:39:496',2,0.905921,0.545549,1,1,0.5,1
1246,'2026/05/31 15:55:39:529',2,0.906281,0.545393,1,1,0.5,1
1247,'2026/05/31 15:55:39:562',2,0.906712,0.545132,1,1,0.5,1
1248,'2026/05/31 15:55:39:596',2,0.906986,0.545042,1,1,0.5,1
1249,'2026/05/31 15:55:39:627',2,0.906837,0.544538,1,1,0.5,1
1250,'2026/05/31 15:55:39:662',2,0.906772,0.544161,1,1,0.5,1
1251,'2026/05/31 15:55:39:695',2,0.9068,0.544151,1,1,0.5,1
1252,'2026/05/31 15:55:39:729',2,0.906777,0.544228,1,1,0.5,1
1253,'2026/05/31 15:55:39:763',2,0.906862,0.543945,1,1,0.5,1
1254,'2026/05/31 15:55:39:795',2,0.906928,0.543963,1,1,0.5,1
1255,'2026/05/31 15:55:39:830',2,0.906889,0.544148,1,1,0.5,1
1256,'2026/05/31 15:55:39:862',2,0.906867,0.544147,1,1,0.5,1
1257,'2026/05/31 15:55:39:896',2,0.906836,0.544018,1,1,0.5,1
1258,'2026/05/31 15:55:39:927',2,0.906841,0.543868,1,1,0.5,1
1259,'2026/05/31 15:55:39:960',2,0.906737,0.543903,1,1,0.5,1
1260,'2026/05/31 15:55:39:994',2,0.906761,0.54379,1,1,0.5,1
1261,'2026/05/31 15:55:40:027',2,0.906875,0.543687,1,1,0.5,1
1262,'2026/05/31 15:55:40:062',2,0.907269,0.542945,1,1,0.5,1
1263,'2026/05/31 15:55:40:096',2,0.907312,0.542388,1,1,0.5,1
1264,'2026/05/31 15:55:40:130',2,0.907365,0.542413,1,1,0.5,1
1265,'2026/05/31 15:55:40:162',2,0.907786,0.542096,1,1,0.5,1
1266,'2026/05/31 15:55:40:196',2,0.908075,0.542588,1,1,0.5,1
1267,'2026/05/31 15:55:40:229',2,0.908225,0.543117,1,1,0.5,1
1268,'2026/05/31 15:55:40:262',2,0.908169,0.544051,1,1,0.5,1
1269,'2026/05/31 15:55:40:296',2,0.907807,0.544739,1,1,0.5,1
1270,'2026/05/31 15:55:40:330',2,0.907381,0.545134,1,1,0.5,1
1271,'2026/05/31 15:55:40:361',2,0.906641,0.545393,1,1,0.5,1
1272,'2026/05/31 15:55:40:396',2,0.90536,0.545381,1,1,0.5,1
1273,'2026/05/31 15:55:40:428',2,0.903882,0.545476,1,1,0.5,1
1274,'2026/05/31 15:55:40:462',2,0.902219,0.545943,1,1,0.5,1
1275,'2026/05/31 15:55:40:496',2,0.900887,0.54696,1,1,0.5,1
1276,'2026/05/31 15:55:40:527',2,0.899541,0.547399,1,1,0.5,1
1277,'2026/05/31 15:55:40:562',2,0.898311,0.54827,1,1,0.5,1
1278,'2026/05/31 15:55:40:595',2,0.897206,0.548702,1,1,0.5,1
1279,'2026/05/31 15:55:40:628',2,0.8969,0.549477,1,1,0.5,1
1280,'2026/05/31 15:55:40:662',2,0.896877,0.549985,1,1,0.5,1
1281,'2026/05/31 15:55:40:696',2,0.896735,0.551168,1,1,0.5,1
1282,'2026/05/31 15:55:40:728',2,0.896716,0.552171,1,1,0.5,1
1283,'2026/05/31 15:55:40:763',2,0.896914,0.552701,1,1,0.5,1
1284,'2026/05/31 15:55:40:795',2,0.896889,0.553488,1,1,0.5,1
1285,'2026/05/31 15:55:40:825',2,0.896944,0.554079,1,1,0.5,1
1286,'2026/05/31 15:56:05:730',3,0.501621,0.22661,1,0.5,0,1
1287,'2026/05/31 15:56:05:764',3,0.50143,0.226289,1,0.5,0,1
1288,'2026/05/31 15:56:05:796',3,0.501638,0.226269,1,0.5,0,1
1289,'2026/05/31 15:56:05:830',3,0.501153,0.227622,1,0.5,0,1
1290,'2026/05/31 15:56:05:863',3,0.501523,0.227619,1,0.5,0,1
1291,'2026/05/31 15:56:05:897',3,0.501384,0.226016,1,0.5,0,1
1292,'2026/05/31 15:56:05:931',3,0.501443,0.225949,1,0.5,0,1
1293,'2026/05/31 15:56:05:963',3,0.501067,0.226015,1,0.5,0,1
1294,'2026/05/31 15:56:05:998',3,0.501112,0.224408,1,0.5,0,1
1295,'2026/05/31 15:56:06:031',3,0.501163,0.222813,1,0.5,0,1
1296,'2026/05/31 15:56:06:064',3,0.50146,0.222444,1,0.5,0,1
1297,'2026/05/31 15:56:06:097',3,0.501424,0.220368,1,0.5,0,1
1298,'2026/05/31 15:56:06:131',3,0.502272,0.220107,1,0.5,0,1
1299,'2026/05/31 15:56:06:164',3,0.503033,0.220295,1,0.5,0,1
1300,'2026/05/31 15:56:06:198',3,0.503545,0.220443,1,0.5,0,1
1301,'2026/05/31 15:56:06:233',3,0.504265,0.219655,1,0.5,0,1
1302,'2026/05/31 15:56:06:261',3,0.504948,0.220602,1,0.5,0,1
1303,'2026/05/31 15:56:06:298',3,0.505622,0.220813,1,0.5,0,1
1304,'2026/05/31 15:56:06:331',3,0.50597,0.219389,1,0.5,0,1
1305,'2026/05/31 15:56:06:365',3,0.506337,0.218856,1,0.5,0,1
1306,'2026/05/31 15:56:06:398',3,0.506476,0.218483,1,0.5,0,1
1307,'2026/05/31 15:56:06:431',3,0.506977,0.216893,1,0.5,0,1
1308,'2026/05/31 15:56:06:466',3,0.507303,0.215952,1,0.5,0,1
1309,'2026/05/31 15:56:06:497',3,0.507678,0.215991,1,0.5,0,1
1310,'2026/05/31 15:56:06:532',3,0.507614,0.215869,1,0.5,0,1
1311,'2026/05/31 15:56:06:565',3,0.507502,0.21539,1,0.5,0,1
1312,'2026/05/31 15:56:06:597',3,0.507627,0.215514,1,0.5,0,1
1313,'2026/05/31 15:56:06:633',3,0.508328,0.215931,1,0.5,0,1
1314,'2026/05/31 15:56:06:664',3,0.509195,0.215713,1,0.5,0,1
1315,'2026/05/31 15:56:06:698',3,0.509321,0.2158,1,0.5,0,1
1316,'2026/05/31 15:56:06:730',3,0.509523,0.21603,1,0.5,0,1
1317,'2026/05/31 15:56:06:764',3,0.509561,0.216242,1,0.5,0,1
1318,'2026/05/31 15:56:06:797',3,0.509655,0.216764,1,0.5,0,1
1319,'2026/05/31 15:56:06:833',3,0.509483,0.217676,1,0.5,0,1
1320,'2026/05/31 15:56:06:864',3,0.509242,0.219134,1,0.5,0,1
1321,'2026/05/31 15:56:06:896',3,0.509311,0.219272,1,0.5,0,1
1322,'2026/05/31 15:56:06:930',3,0.509408,0.219371,1,0.5,0,1
1323,'2026/05/31 15:56:06:962',3,0.509576,0.219597,1,0.5,0,1
1324,'2026/05/31 15:56:07:000',3,0.509287,0.219736,1,0.5,0,1
1325,'2026/05/31 15:56:07:032',3,0.509109,0.219908,1,0.5,0,1
1326,'2026/05/31 15:56:07:063',3,0.508843,0.219941,1,0.5,0,1
1327,'2026/05/31 15:56:07:093',3,0.508518,0.220156,1,0.5,0,1
1328,'2026/05/31 15:56:07:130',3,0.508313,0.220276,1,0.5,0,1
1329,'2026/05/31 15:56:07:165',3,0.508252,0.220362,1,0.5,0,1
1330,'2026/05/31 15:56:07:197',3,0.507962,0.220969,1,0.5,0,1
1331,'2026/05/31 15:56:07:233',3,0.507737,0.220608,1,0.5,0,1
1332,'2026/05/31 15:56:07:265',3,0.507286,0.220745,1,0.5,0,1
1333,'2026/05/31 15:56:07:296',3,0.507262,0.220931,1,0.5,0,1
1334,'2026/05/31 15:56:07:333',3,0.507018,0.221104,1,0.5,0,1
1335,'2026/05/31 15:56:07:362',3,0.50704,0.2205,1,0.5,0,1
1336,'2026/05/31 15:56:07:399',3,0.50721,0.220512,1,0.5,0,1
1337,'2026/05/31 15:56:07:431',3,0.507073,0.220268,1,0.5,0,1
1338,'2026/05/31 15:56:07:465',3,0.50696,0.220139,1,0.5,0,1
1339,'2026/05/31 15:56:07:498',3,0.506988,0.219887,1,0.5,0,1
1340,'2026/05/31 15:56:07:531',3,0.506804,0.220068,1,0.5,0,1
1341,'2026/05/31 15:56:07:566',3,0.506599,0.219379,1,0.5,0,1
1342,'2026/05/31 15:56:07:598',3,0.50651,0.218789,1,0.5,0,1
1343,'2026/05/31 15:56:07:631',3,0.506685,0.218492,1,0.5,0,1
1344,'2026/05/31 15:56:07:665',3,0.506749,0.218545,1,0.5,0,1
1345,'2026/05/31 15:56:07:699',3,0.506912,0.218209,1,0.5,0,1
1346,'2026/05/31 15:56:07:733',3,0.506997,0.21767,1,0.5,0,1
1347,'2026/05/31 15:56:07:763',3,0.50708,0.217824,1,0.5,0,1
1348,'2026/05/31 15:56:07:797',3,0.507003,0.218385,1,0.5,0,1
1349,'2026/05/31 15:56:07:830',3,0.507239,0.218409,1,0.5,0,1
1350,'2026/05/31 15:56:07:865',3,0.507218,0.218302,1,0.5,0,1
1351,'2026/05/31 15:56:07:899',3,0.507385,0.218579,1,0.5,0,1
1352,'2026/05/31 15:56:07:932',3,0.507369,0.218997,1,0.5,0,1
1353,'2026/05/31 15:56:07:967',3,0.50765,0.219324,1,0.5,0,1
1354,'2026/05/31 15:56:07:996',3,0.507667,0.219137,1,0.5,0,1
1355,'2026/05/31 15:56:08:031',3,0.507633,0.219218,1,0.5,0,1
1356,'2026/05/31 15:56:08:064',3,0.507593,0.219601,1,0.5,0,1
1357,'2026/05/31 15:56:08:097',3,0.507395,0.219565,1,0.5,0,1
1358,'2026/05/31 15:56:08:131',3,0.507436,0.219433,1,0.5,0,1
1359,'2026/05/31 15:56:08:164',3,0.507344,0.219697,1,0.5,0,1
1360,'2026/05/31 15:56:08:199',3,0.50747,0.219702,1,0.5,0,1
1361,'2026/05/31 15:56:08:230',3,0.507639,0.220127,1,0.5,0,1
1362,'2026/05/31 15:56:08:265',3,0.508012,0.22022,1,0.5,0,1
1363,'2026/05/31 15:56:08:299',3,0.508379,0.221015,1,0.5,0,1
1364,'2026/05/31 15:56:08:332',3,0.508306,0.221346,1,0.5,0,1
1365,'2026/05/31 15:56:08:365',3,0.508275,0.221747,1,0.5,0,1
1366,'2026/05/31 15:56:08:398',3,0.508285,0.222179,1,0.5,0,1
1367,'2026/05/31 15:56:08:432',3,0.508163,0.222204,1,0.5,0,1
1368,'2026/05/31 15:56:08:463',3,0.508108,0.222203,1,0.5,0,1
1369,'2026/05/31 15:56:08:499',3,0.507881,0.22232,1,0.5,0,1
1370,'2026/05/31 15:56:08:532',3,0.507497,0.22251,1,0.5,0,1
1371,'2026/05/31 15:56:08:564',3,0.507236,0.221926,1,0.5,0,1
1372,'2026/05/31 15:56:08:598',3,0.507249,0.220804,1,0.5,0,1
1373,'2026/05/31 15:56:08:632',3,0.507109,0.22034,1,0.5,0,1
1374,'2026/05/31 15:56:08:666',3,0.506704,0.220301,1,0.5,0,1
1375,'2026/05/31 15:56:08:697',3,0.50681,0.220495,1,0.5,0,1
1376,'2026/05/31 15:56:08:732',3,0.506791,0.22067,1,0.5,0,1
1377,'2026/05/31 15:56:08:764',3,0.506902,0.22097,1,0.5,0,1
1378,'2026/05/31 15:56:08:799',3,0.50706,0.221487,1,0.5,0,1
1379,'2026/05/31 15:56:08:831',3,0.50745,0.22142,1,0.5,0,1
1380,'2026/05/31 15:56:08:865',3,0.507853,0.220908,1,0.5,0,1
1381,'2026/05/31 15:56:08:899',3,0.508054,0.22056,1,0.5,0,1
1382,'2026/05/31 15:56:08:931',3,0.507974,0.220627,1,0.5,0,1
1383,'2026/05/31 15:56:08:966',3,0.507805,0.220891,1,0.5,0,1
1384,'2026/05/31 15:56:08:998',3,0.507861,0.220774,1,0.5,0,1
1385,'2026/05/31 15:56:09:032',3,0.507631,0.220202,1,0.5,0,1
1386,'2026/05/31 15:56:09:065',3,0.507497,0.2205,1,0.5,0,1
1387,'2026/05/31 15:56:09:098',3,0.50733,0.220593,1,0.5,0,1
1388,'2026/05/31 15:56:09:133',3,0.506914,0.220186,1,0.5,0,1
1389,'2026/05/31 15:56:09:164',3,0.506788,0.219585,1,0.5,0,1
1390,'2026/05/31 15:56:09:199',3,0.507096,0.22063,1,0.5,0,1
1391,'2026/05/31 15:56:09:231',3,0.507376,0.220027,1,0.5,0,1
1392,'2026/05/31 15:56:09:266',3,0.507421,0.220105,1,0.5,0,1
1393,'2026/05/31 15:56:09:298',3,0.507412,0.219795,1,0.5,0,1
1394,'2026/05/31 15:56:09:332',3,0.50736,0.21941,1,0.5,0,1
1395,'2026/05/31 15:56:09:371',3,0.507575,0.219275,1,0.5,0,1
1396,'2026/05/31 15:56:09:434',3,0.507747,0.219566,1,0.5,0,1
1397,'2026/05/31 15:56:09:466',3,0.507708,0.219326,1,0.5,0,1
1398,'2026/05/31 15:56:09:498',3,0.507711,0.218969,1,0.5,0,1
1399,'2026/05/31 15:56:09:534',3,0.507598,0.219286,1,0.5,0,1
1400,'2026/05/31 15:56:09:565',3,0.507504,0.218753,1,0.5,0,1
1401,'2026/05/31 15:56:09:602',3,0.507395,0.21886,1,0.5,0,1
1402,'2026/05/31 15:56:09:632',3,0.50755,0.218526,1,0.5,0,1
1403,'2026/05/31 15:56:09:665',3,0.507696,0.217868,1,0.5,0,1
1404,'2026/05/31 15:56:09:698',3,0.507845,0.217378,1,0.5,0,1
1405,'2026/05/31 15:56:09:732',3,0.507867,0.217163,1,0.5,0,1
1406,'2026/05/31 15:56:09:766',3,0.50783,0.217006,1,0.5,0,1
1407,'2026/05/31 15:56:09:797',3,0.507937,0.216767,1,0.5,0,1
1408,'2026/05/31 15:56:09:831',3,0.50799,0.2166,1,0.5,0,1
1409,'2026/05/31 15:56:09:865',3,0.507946,0.216457,1,0.5,0,1
1410,'2026/05/31 15:56:09:899',3,0.507909,0.216257,1,0.5,0,1
1411,'2026/05/31 15:56:09:932',3,0.507863,0.216195,1,0.5,0,1
1412,'2026/05/31 15:56:09:965',3,0.507794,0.21614,1,0.5,0,1
1413,'2026/05/31 15:56:09:998',3,0.507821,0.216196,1,0.5,0,1
1414,'2026/05/31 15:56:10:031',3,0.507645,0.21609,1,0.5,0,1
1415,'2026/05/31 15:56:10:065',3,0.507405,0.216369,1,0.5,0,1
1416,'2026/05/31 15:56:10:099',3,0.507151,0.216136,1,0.5,0,1
1417,'2026/05/31 15:56:10:131',3,0.506737,0.216299,1,0.5,0,1
1418,'2026/05/31 15:56:10:169',3,0.506401,0.21636,1,0.5,0,1
1419,'2026/05/31 15:56:10:235',3,0.506234,0.216728,1,0.5,0,1
1420,'2026/05/31 15:56:10:302',3,0.505961,0.217037,1,0.5,0,1
1421,'2026/05/31 15:56:10:332',3,0.505917,0.216675,1,0.5,0,1
1422,'2026/05/31 15:56:10:366',3,0.506026,0.21699,1,0.5,0,1
1423,'2026/05/31 15:56:10:400',3,0.505883,0.217567,1,0.5,0,1
1424,'2026/05/31 15:56:10:432',3,0.506036,0.217088,1,0.5,0,1
1425,'2026/05/31 15:56:10:466',3,0.506007,0.217241,1,0.5,0,1
1426,'2026/05/31 15:56:10:499',3,0.505783,0.217155,1,0.5,0,1
1427,'2026/05/31 15:56:10:531',3,0.505938,0.217346,1,0.5,0,1
1428,'2026/05/31 15:56:10:568',3,0.505837,0.217375,1,0.5,0,1
1429,'2026/05/31 15:56:10:598',3,0.505884,0.217497,1,0.5,0,1
1430,'2026/05/31 15:56:10:632',3,0.505969,0.217291,1,0.5,0,1
1431,'2026/05/31 15:56:10:666',3,0.50611,0.217408,1,0.5,0,1
1432,'2026/05/31 15:56:10:697',3,0.506115,0.217805,1,0.5,0,1
1433,'2026/05/31 15:56:10:733',3,0.506722,0.218117,1,0.5,0,1
1434,'2026/05/31 15:56:10:764',3,0.506669,0.217927,1,0.5,0,1
1435,'2026/05/31 15:56:10:800',3,0.506983,0.21841,1,0.5,0,1
1436,'2026/05/31 15:56:10:830',3,0.506883,0.218681,1,0.5,0,1
1437,'2026/05/31 15:56:10:867',3,0.506924,0.218691,1,0.5,0,1
1438,'2026/05/31 15:56:10:899',3,0.506973,0.219073,1,0.5,0,1
1439,'2026/05/31 15:56:10:932',3,0.506942,0.218623,1,0.5,0,1
1440,'2026/05/31 15:56:10:969',3,0.506863,0.218617,1,0.5,0,1
1441,'2026/05/31 15:56:10:999',3,0.506747,0.218295,1,0.5,0,1
1442,'2026/05/31 15:56:11:032',3,0.506813,0.218286,1,0.5,0,1
1443,'2026/05/31 15:56:11:065',3,0.50705,0.218357,1,0.5,0,1
1444,'2026/05/31 15:56:11:099',3,0.507022,0.218419,1,0.5,0,1
1445,'2026/05/31 15:56:11:133',3,0.507092,0.218497,1,0.5,0,1
1446,'2026/05/31 15:56:11:164',3,0.507199,0.218299,1,0.5,0,1
1447,'2026/05/31 15:56:11:200',3,0.507332,0.218315,1,0.5,0,1
1448,'2026/05/31 15:56:11:232',3,0.507445,0.217807,1,0.5,0,1
1449,'2026/05/31 15:56:11:266',3,0.507543,0.217598,1,0.5,0,1
1450,'2026/05/31 15:56:11:298',3,0.507659,0.217834,1,0.5,0,1
1451,'2026/05/31 15:56:11:332',3,0.507778,0.218185,1,0.5,0,1
1452,'2026/05/31 15:56:11:365',3,0.507777,0.218385,1,0.5,0,1
1453,'2026/05/31 15:56:11:400',3,0.508074,0.218284,1,0.5,0,1
1454,'2026/05/31 15:56:11:430',3,0.508203,0.218672,1,0.5,0,1
1455,'2026/05/31 15:56:11:464',3,0.508575,0.218729,1,0.5,0,1
1456,'2026/05/31 15:56:11:498',3,0.508569,0.218873,1,0.5,0,1
1457,'2026/05/31 15:56:11:531',3,0.508615,0.218669,1,0.5,0,1
1458,'2026/05/31 15:56:11:565',3,0.508638,0.217704,1,0.5,0,1
1459,'2026/05/31 15:56:11:600',3,0.508653,0.217248,1,0.5,0,1
1460,'2026/05/31 15:56:11:631',3,0.508425,0.217276,1,0.5,0,1
1461,'2026/05/31 15:56:11:666',3,0.508222,0.21686,1,0.5,0,1
1462,'2026/05/31 15:56:11:698',3,0.508049,0.217029,1,0.5,0,1
1463,'2026/05/31 15:56:11:733',3,0.508198,0.216497,1,0.5,0,1
1464,'2026/05/31 15:56:11:769',3,0.50818,0.216612,1,0.5,0,1
1465,'2026/05/31 15:56:11:799',3,0.508514,0.216838,1,0.5,0,1
1466,'2026/05/31 15:56:11:833',3,0.508587,0.217077,1,0.5,0,1
1467,'2026/05/31 15:56:11:867',3,0.508746,0.217203,1,0.5,0,1
1468,'2026/05/31 15:56:11:897',3,0.50894,0.217334,1,0.5,0,1
1469,'2026/05/31 15:56:11:930',3,0.508933,0.217446,1,0.5,0,1
1470,'2026/05/31 15:56:11:965',3,0.509082,0.217192,1,0.5,0,1
1471,'2026/05/31 15:56:11:998',3,0.509178,0.217132,1,0.5,0,1
1472,'2026/05/31 15:56:12:033',3,0.509183,0.217118,1,0.5,0,1
1473,'2026/05/31 15:56:12:066',3,0.509252,0.217001,1,0.5,0,1
1474,'2026/05/31 15:56:12:100',3,0.509338,0.216683,1,0.5,0,1
1475,'2026/05/31 15:56:12:132',3,0.50935,0.216651,1,0.5,0,1
1476,'2026/05/31 15:56:12:166',3,0.509364,0.216695,1,0.5,0,1
1477,'2026/05/31 15:56:12:201',3,0.509397,0.215887,1,0.5,0,1
1478,'2026/05/31 15:56:12:233',3,0.508795,0.215518,1,0.5,0,1
1479,'2026/05/31 15:56:12:267',3,0.508564,0.215884,1,0.5,0,1
1480,'2026/05/31 15:56:12:299',3,0.507914,0.215811,1,0.5,0,1
1481,'2026/05/31 15:56:12:333',3,0.507395,0.215941,1,0.5,0,1
1482,'2026/05/31 15:56:12:366',3,0.507081,0.215832,1,0.5,0,1
1483,'2026/05/31 15:56:12:398',3,0.507134,0.216164,1,0.5,0,1
1484,'2026/05/31 15:56:12:432',3,0.507192,0.216453,1,0.5,0,1
1485,'2026/05/31 15:56:12:465',3,0.507349,0.216404,1,0.5,0,1
1486,'2026/05/31 15:56:12:499',3,0.507143,0.216497,1,0.5,0,1
1487,'2026/05/31 15:56:12:530',3,0.507162,0.215833,1,0.5,0,1
1488,'2026/05/31 15:56:12:570',3,0.507205,0.216008,1,0.5,0,1
1489,'2026/05/31 15:56:12:597',3,0.507592,0.21541,1,0.5,0,1
1490,'2026/05/31 15:56:12:630',3,0.507681,0.214626,1,0.5,0,1
1491,'2026/05/31 15:56:12:665',3,0.507426,0.214801,1,0.5,0,1
1492,'2026/05/31 15:56:12:699',3,0.507624,0.214784,1,0.5,0,1
1493,'2026/05/31 15:56:12:732',3,0.507971,0.214854,1,0.5,0,1
1494,'2026/05/31 15:56:12:766',3,0.508503,0.2153,1,0.5,0,1
1495,'2026/05/31 15:56:12:798',3,0.508831,0.215814,1,0.5,0,1
1496,'2026/05/31 15:56:12:831',3,0.509479,0.215622,1,0.5,0,1
1497,'2026/05/31 15:56:12:864',3,0.509511,0.215387,1,0.5,0,1
1498,'2026/05/31 15:56:12:897',3,0.508763,0.215701,1,0.5,0,1
1499,'2026/05/31 15:56:12:931',3,0.50789,0.215732,1,0.5,0,1
1500,'2026/05/31 15:56:12:964',3,0.507338,0.214832,1,0.5,0,1
1501,'2026/05/31 15:56:12:997',3,0.506746,0.214769,1,0.5,0,1
1502,'2026/05/31 15:56:13:030',3,0.50668,0.214067,1,0.5,0,1
1503,'2026/05/31 15:56:13:064',3,0.506505,0.214404,1,0.5,0,1
1504,'2026/05/31 15:56:13:098',3,0.506211,0.214986,1,0.5,0,1
1505,'2026/05/31 15:56:13:132',3,0.506254,0.214972,1,0.5,0,1
1506,'2026/05/31 15:56:13:164',3,0.506329,0.215503,1,0.5,0,1
1507,'2026/05/31 15:56:13:198',3,0.506333,0.215916,1,0.5,0,1
1508,'2026/05/31 15:56:13:231',3,0.506498,0.216501,1,0.5,0,1
1509,'2026/05/31 15:56:13:264',3,0.506415,0.216352,1,0.5,0,1
1510,'2026/05/31 15:56:13:298',3,0.505596,0.216734,1,0.5,0,1
1511,'2026/05/31 15:56:13:328',3,0.505556,0.217277,1,0.5,0,1
1512,'2026/05/31 15:56:13:363',3,0.505406,0.217381,1,0.5,0,1
1513,'2026/05/31 15:56:13:394',3,0.505269,0.218512,1,0.5,0,1
1514,'2026/05/31 15:56:13:461',3,0.505388,0.218599,1,0.5,0,1
1515,'2026/05/31 15:56:13:494',3,0.505111,0.217799,1,0.5,0,1
1516,'2026/05/31 15:56:13:527',3,0.505031,0.218309,1,0.5,0,1
1517,'2026/05/31 15:56:13:565',3,0.50528,0.218114,1,0.5,0,1
1518,'2026/05/31 15:56:13:597',3,0.505421,0.2168,1,0.5,0,1
1519,'2026/05/31 15:56:13:630',3,0.505585,0.216741,1,0.5,0,1
1520,'2026/05/31 15:56:13:662',3,0.505322,0.217308,1,0.5,0,1
1521,'2026/05/31 15:56:13:696',3,0.505525,0.217114,1,0.5,0,1
1522,'2026/05/31 15:56:13:729',3,0.505549,0.216724,1,0.5,0,1
1523,'2026/05/31 15:56:13:761',3,0.50565,0.217766,1,0.5,0,1
1524,'2026/05/31 15:56:13:796',3,0.505751,0.218221,1,0.5,0,1
1525,'2026/05/31 15:56:13:829',3,0.50581,0.217753,1,0.5,0,1
1526,'2026/05/31 15:56:13:861',3,0.505539,0.218071,1,0.5,0,1
1527,'2026/05/31 15:56:13:894',3,0.505566,0.218406,1,0.5,0,1
1528,'2026/05/31 15:56:13:927',3,0.505525,0.216938,1,0.5,0,1
1529,'2026/05/31 15:56:13:962',3,0.505246,0.217053,1,0.5,0,1
1530,'2026/05/31 15:56:13:995',3,0.505011,0.217132,1,0.5,0,1
1531,'2026/05/31 15:56:14:029',3,0.505062,0.217426,1,0.5,0,1
1532,'2026/05/31 15:56:14:061',3,0.504931,0.216987,1,0.5,0,1
1533,'2026/05/31 15:56:14:095',3,0.505224,0.216929,1,0.5,0,1
1534,'2026/05/31 15:56:14:129',3,0.505224,0.217227,1,0.5,0,1
1535,'2026/05/31 15:56:14:164',3,0.505522,0.21689,1,0.5,0,1
1536,'2026/05/31 15:56:14:228',3,0.505663,0.216937,1,0.5,0,1
1537,'2026/05/31 15:56:14:262',3,0.50588,0.216908,1,0.5,0,1
1538,'2026/05/31 15:56:14:296',3,0.506055,0.216479,1,0.5,0,1
1539,'2026/05/31 15:56:14:329',3,0.506265,0.216941,1,0.5,0,1
1540,'2026/05/31 15:56:14:362',3,0.506387,0.216905,1,0.5,0,1
1541,'2026/05/31 15:56:14:399',3,0.5067,0.21671,1,0.5,0,1
1542,'2026/05/31 15:56:14:431',3,0.506795,0.216585,1,0.5,0,1
1543,'2026/05/31 15:56:14:463',3,0.506782,0.216702,1,0.5,0,1
1544,'2026/05/31 15:56:14:498',3,0.506448,0.216611,1,0.5,0,1
1545,'2026/05/31 15:56:14:531',3,0.506532,0.216207,1,0.5,0,1
1546,'2026/05/31 15:56:14:564',3,0.506357,0.216019,1,0.5,0,1
1547,'2026/05/31 15:56:14:599',3,0.506369,0.216295,1,0.5,0,1
1548,'2026/05/31 15:56:14:631',3,0.506385,0.216103,1,0.5,0,1
1549,'2026/05/31 15:56:14:666',3,0.506411,0.21606,1,0.5,0,1
1550,'2026/05/31 15:56:14:697',3,0.506482,0.216266,1,0.5,0,1
1551,'2026/05/31 15:56:14:731',3,0.50647,0.216407,1,0.5,0,1
1552,'2026/05/31 15:56:14:765',3,0.506666,0.216633,1,0.5,0,1
1553,'2026/05/31 15:56:14:796',3,0.506779,0.217125,1,0.5,0,1
1554,'2026/05/31 15:56:14:831',3,0.506938,0.217194,1,0.5,0,1
1555,'2026/05/31 15:56:14:864',3,0.507053,0.217124,1,0.5,0,1
1556,'2026/05/31 15:56:14:899',3,0.507042,0.216894,1,0.5,0,1
1557,'2026/05/31 15:56:14:930',3,0.507079,0.216949,1,0.5,0,1
1558,'2026/05/31 15:56:14:968',3,0.506886,0.216989,1,0.5,0,1
1559,'2026/05/31 15:56:14:998',3,0.50671,0.2167,1,0.5,0,1
1560,'2026/05/31 15:56:15:031',3,0.506634,0.21689,1,0.5,0,1
1561,'2026/05/31 15:56:15:060',3,0.506657,0.216874,1,0.5,0,1
1562,'2026/05/31 15:56:15:098',3,0.506522,0.216798,1,0.5,0,1
1563,'2026/05/31 15:56:15:127',3,0.506466,0.217289,1,0.5,0,1
1564,'2026/05/31 15:56:15:160',3,0.506434,0.217688,1,0.5,0,1
1565,'2026/05/31 15:56:15:195',3,0.506324,0.217841,1,0.5,0,1
1566,'2026/05/31 15:56:15:230',3,0.506332,0.217771,1,0.5,0,1
1567,'2026/05/31 15:56:15:264',3,0.506521,0.217827,1,0.5,0,1
1568,'2026/05/31 15:56:15:294',3,0.506575,0.217759,1,0.5,0,1
1569,'2026/05/31 15:56:15:330',3,0.506661,0.217626,1,0.5,0,1
1570,'2026/05/31 15:56:15:362',3,0.506864,0.217623,1,0.5,0,1
1571,'2026/05/31 15:56:15:395',3,0.506866,0.217596,1,0.5,0,1
1572,'2026/05/31 15:56:15:432',3,0.506854,0.217531,1,0.5,0,1
1573,'2026/05/31 15:56:15:466',3,0.506672,0.217738,1,0.5,0,1
1574,'2026/05/31 15:56:15:495',3,0.506843,0.217485,1,0.5,0,1
1575,'2026/05/31 15:56:15:530',3,0.506702,0.217623,1,0.5,0,1
1576,'2026/05/31 15:56:15:563',3,0.506653,0.217854,1,0.5,0,1
1577,'2026/05/31 15:56:15:598',3,0.506565,0.218056,1,0.5,0,1
1578,'2026/05/31 15:56:15:627',3,0.506451,0.218296,1,0.5,0,1
1579,'2026/05/31 15:56:15:661',3,0.506254,0.218501,1,0.5,0,1
1580,'2026/05/31 15:56:15:694',3,0.50628,0.218923,1,0.5,0,1
1581,'2026/05/31 15:56:15:727',3,0.506428,0.219533,1,0.5,0,1
1582,'2026/05/31 15:56:15:760',3,0.506553,0.219649,1,0.5,0,1
1583,'2026/05/31 15:56:15:794',3,0.506572,0.219712,1,0.5,0,1
1584,'2026/05/31 15:56:15:829',3,0.506575,0.219784,1,0.5,0,1
1585,'2026/05/31 15:56:15:860',3,0.506618,0.21959,1,0.5,0,1
1586,'2026/05/31 15:56:15:892',3,0.506449,0.219449,1,0.5,0,1
1587,'2026/05/31 15:56:15:927',3,0.506261,0.220023,1,0.5,0,1
1588,'2026/05/31 15:56:15:961',3,0.506106,0.220358,1,0.5,0,1
1589,'2026/05/31 15:56:15:995',3,0.506142,0.220903,1,0.5,0,1
1590,'2026/05/31 15:56:16:029',3,0.506347,0.220886,1,0.5,0,1
1591,'2026/05/31 15:56:16:066',3,0.506239,0.220041,1,0.5,0,1
1592,'2026/05/31 15:56:16:099',3,0.506503,0.219637,1,0.5,0,1
1593,'2026/05/31 15:56:16:132',3,0.50626,0.221415,1,0.5,0,1
1594,'2026/05/31 15:56:16:166',3,0.50597,0.221301,1,0.5,0,1
1595,'2026/05/31 15:56:16:199',3,0.505393,0.219633,1,0.5,0,1
1596,'2026/05/31 15:56:16:231',3,0.504996,0.220713,1,0.5,0,1
1597,'2026/05/31 15:56:16:264',3,0.504282,0.220226,1,0.5,0,1
1598,'2026/05/31 15:56:16:298',3,0.503516,0.218723,1,0.5,0,1
1599,'2026/05/31 15:56:16:331',3,0.503128,0.218891,1,0.5,0,1
1600,'2026/05/31 15:56:16:367',3,0.502826,0.220096,1,0.5,0,1
1601,'2026/05/31 15:56:16:400',3,0.502198,0.219644,1,0.5,0,1
1602,'2026/05/31 15:56:16:432',3,0.502222,0.21973,1,0.5,0,1
1603,'2026/05/31 15:56:16:467',3,0.5023,0.221072,1,0.5,0,1
1604,'2026/05/31 15:56:16:498',3,0.50239,0.220628,1,0.5,0,1
1605,'2026/05/31 15:56:16:532',3,0.502827,0.21923,1,0.5,0,1
1606,'2026/05/31 15:56:16:566',3,0.503239,0.219351,1,0.5,0,1
1607,'2026/05/31 15:56:16:599',3,0.503622,0.218859,1,0.5,0,1
1608,'2026/05/31 15:56:16:633',3,0.50442,0.218695,1,0.5,0,1
1609,'2026/05/31 15:56:16:666',3,0.504825,0.218945,1,0.5,0,1
1610,'2026/05/31 15:56:16:701',3,0.505826,0.219843,1,0.5,0,1
1611,'2026/05/31 15:56:16:732',3,0.506583,0.220368,1,0.5,0,1
1612,'2026/05/31 15:56:16:766',3,0.506876,0.220266,1,0.5,0,1
1613,'2026/05/31 15:56:16:799',3,0.507371,0.220375,1,0.5,0,1
1614,'2026/05/31 15:56:16:829',3,0.507953,0.219932,1,0.5,0,1
1615,'2026/05/31 15:56:16:867',3,0.508569,0.217812,1,0.5,0,1
1616,'2026/05/31 15:56:16:896',3,0.509027,0.217811,1,0.5,0,1
1617,'2026/05/31 15:56:16:933',3,0.510264,0.21767,1,0.5,0,1
1618,'2026/05/31 15:56:16:965',3,0.511079,0.216953,1,0.5,0,1
1619,'2026/05/31 15:56:16:998',3,0.512193,0.215723,1,0.5,0,1
1620,'2026/05/31 15:56:17:033',3,0.512242,0.215056,1,0.5,0,1
1621,'2026/05/31 15:56:17:063',3,0.512151,0.214431,1,0.5,0,1
1622,'2026/05/31 15:56:17:097',3,0.512647,0.213861,1,0.5,0,1
1623,'2026/05/31 15:56:17:129',3,0.512573,0.214082,1,0.5,0,1
1624,'2026/05/31 15:56:17:168',3,0.512738,0.214236,1,0.5,0,1
1625,'2026/05/31 15:56:17:199',3,0.513092,0.214414,1,0.5,0,1
1626,'2026/05/31 15:56:17:229',3,0.513713,0.21463,1,0.5,0,1
1627,'2026/05/31 15:56:17:266',3,0.514245,0.215542,1,0.5,0,1
1628,'2026/05/31 15:56:17:297',3,0.514887,0.216496,1,0.5,0,1
1629,'2026/05/31 15:56:17:330',3,0.51567,0.216657,1,0.5,0,1
1630,'2026/05/31 15:56:17:365',3,0.516529,0.216736,1,0.5,0,1
1631,'2026/05/31 15:56:17:399',3,0.517676,0.217047,1,0.5,0,1
1632,'2026/05/31 15:56:17:432',3,0.518523,0.216391,1,0.5,0,1
1633,'2026/05/31 15:56:17:465',3,0.518751,0.216546,1,0.5,0,1
1634,'2026/05/31 15:56:17:501',3,0.519664,0.216715,1,0.5,0,1
1635,'2026/05/31 15:56:17:530',3,0.52015,0.21653,1,0.5,0,1
1636,'2026/05/31 15:56:17:566',3,0.519945,0.216014,1,0.5,0,1
1637,'2026/05/31 15:56:17:596',3,0.519734,0.216169,1,0.5,0,1
1638,'2026/05/31 15:56:17:630',3,0.519991,0.216196,1,0.5,0,1
1639,'2026/05/31 15:56:17:665',3,0.51975,0.215943,1,0.5,0,1
1640,'2026/05/31 15:56:17:697',3,0.519765,0.21632,1,0.5,0,1
1641,'2026/05/31 15:56:17:730',3,0.519466,0.217029,1,0.5,0,1
1642,'2026/05/31 15:56:17:764',3,0.519341,0.216671,1,0.5,0,1
1643,'2026/05/31 15:56:17:796',3,0.518555,0.217421,1,0.5,0,1
1644,'2026/05/31 15:56:17:830',3,0.518958,0.217126,1,0.5,0,1
1645,'2026/05/31 15:56:17:866',3,0.518489,0.217852,1,0.5,0,1
1646,'2026/05/31 15:56:17:899',3,0.518828,0.217558,1,0.5,0,1
1647,'2026/05/31 15:56:17:931',3,0.518546,0.21842,1,0.5,0,1
1648,'2026/05/31 15:56:17:965',3,0.519807,0.219681,1,0.5,0,1
1649,'2026/05/31 15:56:17:998',3,0.521545,0.220844,1,0.5,0,1
1650,'2026/05/31 15:56:18:032',3,0.523466,0.220555,1,0.5,0,1
1651,'2026/05/31 15:56:18:065',3,0.524782,0.221414,1,0.5,0,1
1652,'2026/05/31 15:56:18:099',3,0.525223,0.220927,1,0.5,0,1
1653,'2026/05/31 15:56:18:132',3,0.525452,0.221115,1,0.5,0,1
1654,'2026/05/31 15:56:18:166',3,0.525719,0.220541,1,0.5,0,1
1655,'2026/05/31 15:56:18:199',3,0.525247,0.219942,1,0.5,0,1
1656,'2026/05/31 15:56:18:231',3,0.5249,0.219865,1,0.5,0,1
1657,'2026/05/31 15:56:18:266',3,0.524461,0.219732,1,0.5,0,1
1658,'2026/05/31 15:56:18:298',3,0.524629,0.219542,1,0.5,0,1
1659,'2026/05/31 15:56:18:333',3,0.525117,0.219003,1,0.5,0,1
1660,'2026/05/31 15:56:18:366',3,0.526004,0.217963,1,0.5,0,1
1661,'2026/05/31 15:56:18:399',3,0.526516,0.217176,1,0.5,0,1
1662,'2026/05/31 15:56:18:431',3,0.526228,0.216796,1,0.5,0,1
1663,'2026/05/31 15:56:18:463',3,0.525046,0.215785,1,0.5,0,1
1664,'2026/05/31 15:56:18:497',3,0.523973,0.216709,1,0.5,0,1
1665,'2026/05/31 15:56:18:531',3,0.523035,0.215999,1,0.5,0,1
1666,'2026/05/31 15:56:18:567',3,0.522265,0.215715,1,0.5,0,1
1667,'2026/05/31 15:56:18:600',3,0.522052,0.21589,1,0.5,0,1
1668,'2026/05/31 15:56:18:632',3,0.52217,0.216028,1,0.5,0,1
1669,'2026/05/31 15:56:18:666',3,0.52229,0.215844,1,0.5,0,1
1670,'2026/05/31 15:56:18:699',3,0.522389,0.215595,1,0.5,0,1
1671,'2026/05/31 15:56:18:733',3,0.522516,0.215763,1,0.5,0,1
1672,'2026/05/31 15:56:18:766',3,0.52245,0.216162,1,0.5,0,1
1673,'2026/05/31 15:56:18:800',3,0.522582,0.216405,1,0.5,0,1
1674,'2026/05/31 15:56:18:831',3,0.522728,0.216846,1,0.5,0,1
1675,'2026/05/31 15:56:18:865',3,0.522768,0.216994,1,0.5,0,1
1676,'2026/05/31 15:56:18:899',3,0.52243,0.216862,1,0.5,0,1
1677,'2026/05/31 15:56:18:931',3,0.522243,0.217375,1,0.5,0,1
1678,'2026/05/31 15:56:18:966',3,0.522071,0.216224,1,0.5,0,1
1679,'2026/05/31 15:56:18:998',3,0.521526,0.215717,1,0.5,0,1
1680,'2026/05/31 15:56:19:031',3,0.521562,0.21571,1,0.5,0,1
1681,'2026/05/31 15:56:19:065',3,0.521757,0.215274,1,0.5,0,1
1682,'2026/05/31 15:56:19:098',3,0.521868,0.215553,1,0.5,0,1
1683,'2026/05/31 15:56:19:132',3,0.521394,0.2153,1,0.5,0,1
1684,'2026/05/31 15:56:19:166',3,0.521135,0.215669,1,0.5,0,1
1685,'2026/05/31 15:56:19:200',3,0.520666,0.21661,1,0.5,0,1
1686,'2026/05/31 15:56:19:231',3,0.520197,0.21666,1,0.5,0,1
1687,'2026/05/31 15:56:19:265',3,0.520115,0.217907,1,0.5,0,1
1688,'2026/05/31 15:56:19:299',3,0.520081,0.218008,1,0.5,0,1
1689,'2026/05/31 15:56:19:331',3,0.52016,0.218422,1,0.5,0,1
1690,'2026/05/31 15:56:19:365',3,0.519924,0.218773,1,0.5,0,1
1691,'2026/05/31 15:56:19:402',3,0.519576,0.219628,1,0.5,0,1
1692,'2026/05/31 15:56:19:431',3,0.51947,0.220448,1,0.5,0,1
1693,'2026/05/31 15:56:19:466',3,0.519471,0.220554,1,0.5,0,1
1694,'2026/05/31 15:56:19:498',3,0.519307,0.220658,1,0.5,0,1
1695,'2026/05/31 15:56:19:532',3,0.519561,0.221812,1,0.5,0,1
1696,'2026/05/31 15:56:19:561',3,0.519981,0.222036,1,0.5,0,1
1697,'2026/05/31 15:56:19:595',3,0.520036,0.22186,1,0.5,0,1
1698,'2026/05/31 15:56:19:629',3,0.519971,0.222375,1,0.5,0,1
1699,'2026/05/31 15:56:19:664',3,0.519961,0.222511,1,0.5,0,1
1700,'2026/05/31 15:56:19:699',3,0.520131,0.222421,1,0.5,0,1
1701,'2026/05/31 15:56:19:731',3,0.52013,0.222838,1,0.5,0,1
1702,'2026/05/31 15:56:19:766',3,0.519842,0.223488,1,0.5,0,1
1703,'2026/05/31 15:56:19:798',3,0.520104,0.223813,1,0.5,0,1
1704,'2026/05/31 15:56:19:836',3,0.520276,0.22413,1,0.5,0,1
1705,'2026/05/31 15:56:19:866',3,0.520702,0.225044,1,0.5,0,1
1706,'2026/05/31 15:56:19:899',3,0.520927,0.225614,1,0.5,0,1
1707,'2026/05/31 15:56:19:934',3,0.520788,0.225584,1,0.5,0,1
1708,'2026/05/31 15:56:19:964',3,0.520852,0.22557,1,0.5,0,1
1709,'2026/05/31 15:56:19:999',3,0.521018,0.225242,1,0.5,0,1
1710,'2026/05/31 15:56:20:033',3,0.520835,0.224606,1,0.5,0,1
1711,'2026/05/31 15:56:20:066',3,0.520578,0.224351,1,0.5,0,1
1712,'2026/05/31 15:56:20:099',3,0.520327,0.224306,1,0.5,0,1
1713,'2026/05/31 15:56:20:133',3,0.520276,0.224427,1,0.5,0,1
1714,'2026/05/31 15:56:20:167',3,0.520202,0.224521,1,0.5,0,1
1715,'2026/05/31 15:56:20:203',3,0.52016,0.224849,1,0.5,0,1
1716,'2026/05/31 15:56:20:232',3,0.52016,0.225121,1,0.5,0,1
1717,'2026/05/31 15:56:20:267',3,0.520306,0.225109,1,0.5,0,1
1718,'2026/05/31 15:56:20:299',3,0.52015,0.225302,1,0.5,0,1
1719,'2026/05/31 15:56:20:333',3,0.520359,0.225304,1,0.5,0,1
1720,'2026/05/31 15:56:20:367',3,0.520412,0.224768,1,0.5,0,1
1721,'2026/05/31 15:56:20:400',3,0.520491,0.224523,1,0.5,0,1
1722,'2026/05/31 15:56:20:432',3,0.520496,0.22436,1,0.5,0,1
1723,'2026/05/31 15:56:20:467',3,0.520497,0.224139,1,0.5,0,1
1724,'2026/05/31 15:56:20:500',3,0.520316,0.223618,1,0.5,0,1
1725,'2026/05/31 15:56:20:534',3,0.520275,0.223736,1,0.5,0,1
1726,'2026/05/31 15:56:20:568',3,0.52021,0.223667,1,0.5,0,1
1727,'2026/05/31 15:56:20:599',3,0.520181,0.223802,1,0.5,0,1
1728,'2026/05/31 15:56:20:634',3,0.52031,0.224065,1,0.5,0,1
1729,'2026/05/31 15:56:20:665',3,0.520438,0.2242,1,0.5,0,1
1730,'2026/05/31 15:56:20:699',3,0.520311,0.223987,1,0.5,0,1
1731,'2026/05/31 15:56:20:732',3,0.520478,0.223949,1,0.5,0,1
1732,'2026/05/31 15:56:20:766',3,0.520453,0.223785,1,0.5,0,1
1733,'2026/05/31 15:56:20:800',3,0.520409,0.223711,1,0.5,0,1
1734,'2026/05/31 15:56:20:832',3,0.520326,0.223705,1,0.5,0,1
1735,'2026/05/31 15:56:20:867',3,0.520523,0.223863,1,0.5,0,1
1736,'2026/05/31 15:56:20:900',3,0.520648,0.223988,1,0.5,0,1
1737,'2026/05/31 15:56:20:931',3,0.520595,0.223946,1,0.5,0,1
1738,'2026/05/31 15:56:20:966',3,0.520487,0.223893,1,0.5,0,1
1739,'2026/05/31 15:56:21:000',3,0.520509,0.224191,1,0.5,0,1
1740,'2026/05/31 15:56:21:032',3,0.520546,0.22441,1,0.5,0,1
1741,'2026/05/31 15:56:21:066',3,0.520604,0.22456,1,0.5,0,1
1742,'2026/05/31 15:56:21:101',3,0.52075,0.224489,1,0.5,0,1
1743,'2026/05/31 15:56:21:134',3,0.520833,0.224351,1,0.5,0,1
1744,'2026/05/31 15:56:21:167',3,0.520853,0.223965,1,0.5,0,1
1745,'2026/05/31 15:56:21:199',3,0.520757,0.224078,1,0.5,0,1
1746,'2026/05/31 15:56:21:234',3,0.520827,0.223728,1,0.5,0,1
1747,'2026/05/31 15:56:21:267',3,0.520893,0.223856,1,0.5,0,1
1748,'2026/05/31 15:56:21:299',3,0.520984,0.223699,1,0.5,0,1
1749,'2026/05/31 15:56:21:334',3,0.520916,0.223698,1,0.5,0,1
1750,'2026/05/31 15:56:21:367',3,0.520993,0.223936,1,0.5,0,1
1751,'2026/05/31 15:56:21:401',3,0.520956,0.223779,1,0.5,0,1
1752,'2026/05/31 15:56:21:433',3,0.52082,0.223239,1,0.5,0,1
1753,'2026/05/31 15:56:21:468',3,0.520867,0.223236,1,0.5,0,1
1754,'2026/05/31 15:56:21:500',3,0.520701,0.223475,1,0.5,0,1
1755,'2026/05/31 15:56:21:533',3,0.520563,0.223315,1,0.5,0,1
1756,'2026/05/31 15:56:21:567',3,0.520599,0.223298,1,0.5,0,1
1757,'2026/05/31 15:56:21:600',3,0.520361,0.22264,1,0.5,0,1
1758,'2026/05/31 15:56:21:633',3,0.520488,0.222372,1,0.5,0,1
1759,'2026/05/31 15:56:21:663',3,0.520531,0.222183,1,0.5,0,1
1760,'2026/05/31 15:56:21:696',3,0.520874,0.222025,1,0.5,0,1
1761,'2026/05/31 15:56:21:733',3,0.521002,0.222102,1,0.5,0,1
1762,'2026/05/31 15:56:21:766',3,0.521045,0.222447,1,0.5,0,1
1763,'2026/05/31 15:56:21:801',3,0.520995,0.22208,1,0.5,0,1
1764,'2026/05/31 15:56:21:834',3,0.520623,0.222002,1,0.5,0,1
1765,'2026/05/31 15:56:21:867',3,0.520573,0.222583,1,0.5,0,1
1766,'2026/05/31 15:56:21:900',3,0.520409,0.222624,1,0.5,0,1
1767,'2026/05/31 15:56:21:932',3,0.520421,0.222648,1,0.5,0,1
1768,'2026/05/31 15:56:21:966',3,0.520289,0.222657,1,0.5,0,1
1769,'2026/05/31 15:56:21:998',3,0.520164,0.223401,1,0.5,0,1
1770,'2026/05/31 15:56:22:032',3,0.520259,0.223657,1,0.5,0,1
1771,'2026/05/31 15:56:22:066',3,0.520402,0.22376,1,0.5,0,1
1772,'2026/05/31 15:56:22:099',3,0.520453,0.223645,1,0.5,0,1
1773,'2026/05/31 15:56:22:134',3,0.520517,0.223392,1,0.5,0,1
1774,'2026/05/31 15:56:22:165',3,0.52061,0.22321,1,0.5,0,1
1775,'2026/05/31 15:56:22:201',3,0.52065,0.223101,1,0.5,0,1
1776,'2026/05/31 15:56:22:233',3,0.520749,0.223004,1,0.5,0,1
1777,'2026/05/31 15:56:22:267',3,0.520848,0.222949,1,0.5,0,1
1778,'2026/05/31 15:56:22:299',3,0.520789,0.222584,1,0.5,0,1
1779,'2026/05/31 15:56:22:334',3,0.520757,0.222736,1,0.5,0,1
1780,'2026/05/31 15:56:22:367',3,0.520842,0.222539,1,0.5,0,1
1781,'2026/05/31 15:56:22:400',3,0.520895,0.222566,1,0.5,0,1
1782,'2026/05/31 15:56:22:434',3,0.520767,0.222358,1,0.5,0,1
1783,'2026/05/31 15:56:22:467',3,0.520428,0.222421,1,0.5,0,1
1784,'2026/05/31 15:56:22:501',3,0.52021,0.222482,1,0.5,0,1
1785,'2026/05/31 15:56:22:533',3,0.520016,0.22242,1,0.5,0,1
1786,'2026/05/31 15:56:22:567',3,0.520136,0.222388,1,0.5,0,1
1787,'2026/05/31 15:56:22:601',3,0.520178,0.222718,1,0.5,0,1
1788,'2026/05/31 15:56:22:632',3,0.520201,0.222732,1,0.5,0,1
1789,'2026/05/31 15:56:22:667',3,0.520183,0.222859,1,0.5,0,1
1790,'2026/05/31 15:56:22:700',3,0.520073,0.223309,1,0.5,0,1
1791,'2026/05/31 15:56:22:732',3,0.520111,0.223645,1,0.5,0,1
1792,'2026/05/31 15:56:22:767',3,0.520135,0.223883,1,0.5,0,1
1793,'2026/05/31 15:56:22:799',3,0.52003,0.223602,1,0.5,0,1
1794,'2026/05/31 15:56:22:835',3,0.519816,0.223335,1,0.5,0,1
1795,'2026/05/31 15:56:22:866',3,0.51993,0.222904,1,0.5,0,1
1796,'2026/05/31 15:56:22:898',3,0.519789,0.222458,1,0.5,0,1
1797,'2026/05/31 15:56:22:932',3,0.519743,0.221811,1,0.5,0,1
1798,'2026/05/31 15:56:22:966',3,0.519921,0.222288,1,0.5,0,1
1799,'2026/05/31 15:56:23:000',3,0.519715,0.221277,1,0.5,0,1
1800,'2026/05/31 15:56:23:034',3,0.519552,0.221092,1,0.5,0,1
1801,'2026/05/31 15:56:23:068',3,0.51948,0.221167,1,0.5,0,1
1802,'2026/05/31 15:56:23:100',3,0.519525,0.22131,1,0.5,0,1
1803,'2026/05/31 15:56:23:134',3,0.519589,0.221401,1,0.5,0,1
1804,'2026/05/31 15:56:23:167',3,0.51936,0.221874,1,0.5,0,1
1805,'2026/05/31 15:56:23:202',3,0.519373,0.222551,1,0.5,0,1
1806,'2026/05/31 15:56:23:233',3,0.519526,0.223131,1,0.5,0,1
1807,'2026/05/31 15:56:23:268',3,0.519688,0.223448,1,0.5,0,1
1808,'2026/05/31 15:56:23:300',3,0.519846,0.223325,1,0.5,0,1
1809,'2026/05/31 15:56:23:333',3,0.519997,0.223339,1,0.5,0,1
1810,'2026/05/31 15:56:23:367',3,0.51997,0.223417,1,0.5,0,1
1811,'2026/05/31 15:56:23:400',3,0.519954,0.223463,1,0.5,0,1
1812,'2026/05/31 15:56:23:433',3,0.519547,0.223534,1,0.5,0,1
1813,'2026/05/31 15:56:23:467',3,0.519075,0.223367,1,0.5,0,1
1814,'2026/05/31 15:56:23:499',3,0.518829,0.22286,1,0.5,0,1
1815,'2026/05/31 15:56:23:534',3,0.518801,0.222731,1,0.5,0,1
1816,'2026/05/31 15:56:23:566',3,0.518532,0.223277,1,0.5,0,1
1817,'2026/05/31 15:56:23:600',3,0.518428,0.222592,1,0.5,0,1
1818,'2026/05/31 15:56:23:634',3,0.518274,0.222735,1,0.5,0,1
1819,'2026/05/31 15:56:23:666',3,0.51802,0.222921,1,0.5,0,1
1820,'2026/05/31 15:56:23:701',3,0.517821,0.222939,1,0.5,0,1
1821,'2026/05/31 15:56:23:732',3,0.517711,0.223041,1,0.5,0,1
1822,'2026/05/31 15:56:23:768',3,0.517727,0.223222,1,0.5,0,1
1823,'2026/05/31 15:56:23:800',3,0.517559,0.223556,1,0.5,0,1
1824,'2026/05/31 15:56:23:835',3,0.517654,0.223727,1,0.5,0,1
1825,'2026/05/31 15:56:23:865',3,0.517725,0.224049,1,0.5,0,1
1826,'2026/05/31 15:56:23:897',3,0.51791,0.223855,1,0.5,0,1
1827,'2026/05/31 15:56:23:930',3,0.518395,0.223577,1,0.5,0,1
1828,'2026/05/31 15:56:23:963',3,0.518839,0.223374,1,0.5,0,1
1829,'2026/05/31 15:56:23:996',3,0.518899,0.22311,1,0.5,0,1
1830,'2026/05/31 15:56:24:029',3,0.51891,0.22334,1,0.5,0,1
1831,'2026/05/31 15:56:24:062',3,0.518743,0.223323,1,0.5,0,1
1832,'2026/05/31 15:56:24:096',3,0.518547,0.223935,1,0.5,0,1
1833,'2026/05/31 15:56:24:131',3,0.518518,0.225138,1,0.5,0,1
1834,'2026/05/31 15:56:24:163',3,0.518489,0.225574,1,0.5,0,1
1835,'2026/05/31 15:56:24:195',3,0.518182,0.22606,1,0.5,0,1
1836,'2026/05/31 15:56:24:229',3,0.51785,0.226702,1,0.5,0,1
1837,'2026/05/31 15:56:24:262',3,0.517417,0.226757,1,0.5,0,1
1838,'2026/05/31 15:56:24:296',3,0.517456,0.227441,1,0.5,0,1
1839,'2026/05/31 15:56:24:330',3,0.517676,0.228102,1,0.5,0,1
1840,'2026/05/31 15:56:24:363',3,0.517637,0.228304,1,0.5,0,1
1841,'2026/05/31 15:56:24:396',3,0.517544,0.228379,1,0.5,0,1
1842,'2026/05/31 15:56:24:429',3,0.517413,0.228161,1,0.5,0,1
1843,'2026/05/31 15:56:24:463',3,0.516717,0.227938,1,0.5,0,1
1844,'2026/05/31 15:56:24:497',3,0.516282,0.227308,1,0.5,0,1
1845,'2026/05/31 15:56:24:530',3,0.515768,0.227092,1,0.5,0,1
1846,'2026/05/31 15:56:24:563',3,0.51551,0.226656,1,0.5,0,1
1847,'2026/05/31 15:56:24:597',3,0.515104,0.226482,1,0.5,0,1
1848,'2026/05/31 15:56:24:630',3,0.514944,0.226228,1,0.5,0,1
1849,'2026/05/31 15:56:24:662',3,0.514199,0.225825,1,0.5,0,1
1850,'2026/05/31 15:56:24:695',3,0.513334,0.225122,1,0.5,0,1
1851,'2026/05/31 15:56:24:730',3,0.511239,0.224175,1,0.5,0,1
1852,'2026/05/31 15:56:24:763',3,0.508888,0.223228,1,0.5,0,1
1853,'2026/05/31 15:56:24:797',3,0.507348,0.221755,1,0.5,0,1
1854,'2026/05/31 15:56:24:831',3,0.505908,0.221081,1,0.5,0,1
1855,'2026/05/31 15:56:24:863',3,0.505177,0.221196,1,0.5,0,1
1856,'2026/05/31 15:56:24:896',3,0.504836,0.221751,1,0.5,0,1
1857,'2026/05/31 15:56:24:933',3,0.504339,0.222774,1,0.5,0,1
1858,'2026/05/31 15:56:24:965',3,0.503687,0.223421,1,0.5,0,1
1859,'2026/05/31 15:56:24:998',3,0.503197,0.224031,1,0.5,0,1
1860,'2026/05/31 15:56:25:032',3,0.502494,0.224407,1,0.5,0,1
1861,'2026/05/31 15:56:25:065',3,0.501804,0.224359,1,0.5,0,1
1862,'2026/05/31 15:56:25:099',3,0.501265,0.224494,1,0.5,0,1
1863,'2026/05/31 15:56:25:130',3,0.500873,0.22488,1,0.5,0,1
1864,'2026/05/31 15:56:25:166',3,0.500169,0.225325,1,0.5,0,1
1865,'2026/05/31 15:56:25:197',3,0.499409,0.224973,1,0.5,0,1
1866,'2026/05/31 15:56:25:228',3,0.498811,0.22512,1,0.5,0,1
1867,'2026/05/31 15:56:25:261',3,0.498237,0.224978,1,0.5,0,1
1868,'2026/05/31 15:56:25:295',3,0.498143,0.22502,1,0.5,0,1
1869,'2026/05/31 15:56:25:329',3,0.49811,0.225331,1,0.5,0,1
1870,'2026/05/31 15:56:25:363',3,0.497998,0.225805,1,0.5,0,1
1871,'2026/05/31 15:56:25:395',3,0.497804,0.226239,1,0.5,0,1
1872,'2026/05/31 15:56:25:430',3,0.497481,0.227078,1,0.5,0,1
1873,'2026/05/31 15:56:25:464',3,0.497313,0.22811,1,0.5,0,1
1874,'2026/05/31 15:56:25:495',3,0.496912,0.228687,1,0.5,0,1
1875,'2026/05/31 15:56:25:532',3,0.496659,0.229154,1,0.5,0,1
1876,'2026/05/31 15:56:25:565',3,0.495887,0.229586,1,0.5,0,1
1877,'2026/05/31 15:56:25:598',3,0.495148,0.229839,1,0.5,0,1
1878,'2026/05/31 15:56:25:633',3,0.494484,0.230023,1,0.5,0,1
1879,'2026/05/31 15:56:25:668',3,0.493685,0.229982,1,0.5,0,1
1880,'2026/05/31 15:56:25:698',3,0.492632,0.229362,1,0.5,0,1
1881,'2026/05/31 15:56:25:734',3,0.491767,0.228249,1,0.5,0,1
1882,'2026/05/31 15:56:25:765',3,0.491168,0.228145,1,0.5,0,1
1883,'2026/05/31 15:56:25:799',3,0.490955,0.227988,1,0.5,0,1
1884,'2026/05/31 15:56:25:831',3,0.491486,0.22839,1,0.5,0,1
1885,'2026/05/31 15:56:25:864',3,0.492155,0.228145,1,0.5,0,1
1886,'2026/05/31 15:56:25:899',3,0.49261,0.22808,1,0.5,0,1
1887,'2026/05/31 15:56:25:931',3,0.493319,0.229056,1,0.5,0,1
1888,'2026/05/31 15:56:25:966',3,0.494039,0.22988,1,0.5,0,1
1889,'2026/05/31 15:56:25:998',3,0.495443,0.230338,1,0.5,0,1
1890,'2026/05/31 15:56:26:031',3,0.496875,0.230702,1,0.5,0,1
1891,'2026/05/31 15:56:26:062',3,0.497931,0.23076,1,0.5,0,1
1892,'2026/05/31 15:56:26:095',3,0.499488,0.230712,1,0.5,0,1
1893,'2026/05/31 15:56:26:130',3,0.500982,0.230529,1,0.5,0,1
1894,'2026/05/31 15:56:26:162',3,0.501471,0.230283,1,0.5,0,1
1895,'2026/05/31 15:56:26:196',3,0.502133,0.230134,1,0.5,0,1
1896,'2026/05/31 15:56:26:229',3,0.502865,0.229954,1,0.5,0,1
1897,'2026/05/31 15:56:26:262',3,0.503535,0.229968,1,0.5,0,1
1898,'2026/05/31 15:56:26:296',3,0.504323,0.229674,1,0.5,0,1
1899,'2026/05/31 15:56:26:329',3,0.505242,0.230119,1,0.5,0,1
1900,'2026/05/31 15:56:26:363',3,0.506216,0.230225,1,0.5,0,1
1901,'2026/05/31 15:56:26:396',3,0.507116,0.229925,1,0.5,0,1
1902,'2026/05/31 15:56:26:434',3,0.508323,0.229364,1,0.5,0,1
1903,'2026/05/31 15:56:26:467',3,0.509147,0.229062,1,0.5,0,1
1904,'2026/05/31 15:56:26:500',3,0.51016,0.228388,1,0.5,0,1
1905,'2026/05/31 15:56:26:535',3,0.511614,0.228219,1,0.5,0,1
1906,'2026/05/31 15:56:26:566',3,0.512526,0.228219,1,0.5,0,1
1907,'2026/05/31 15:56:26:598',3,0.513431,0.22776,1,0.5,0,1
1908,'2026/05/31 15:56:26:632',3,0.514494,0.227317,1,0.5,0,1
1909,'2026/05/31 15:56:26:667',3,0.515724,0.226749,1,0.5,0,1
1910,'2026/05/31 15:56:26:700',3,0.516116,0.226125,1,0.5,0,1
1911,'2026/05/31 15:56:26:734',3,0.517167,0.225891,1,0.5,0,1
1912,'2026/05/31 15:56:26:767',3,0.518486,0.226035,1,0.5,0,1
1913,'2026/05/31 15:56:26:800',3,0.518848,0.226364,1,0.5,0,1
1914,'2026/05/31 15:56:26:834',3,0.519419,0.226152,1,0.5,0,1
1915,'2026/05/31 15:56:26:866',3,0.519977,0.226102,1,0.5,0,1
1916,'2026/05/31 15:56:26:901',3,0.520563,0.226004,1,0.5,0,1
1917,'2026/05/31 15:56:26:933',3,0.521615,0.225325,1,0.5,0,1
1918,'2026/05/31 15:56:26:966',3,0.522568,0.225408,1,0.5,0,1
1919,'2026/05/31 15:56:26:999',3,0.523373,0.224855,1,0.5,0,1
1920,'2026/05/31 15:56:27:032',3,0.524485,0.223922,1,0.5,0,1
1921,'2026/05/31 15:56:27:066',3,0.524972,0.224053,1,0.5,0,1
1922,'2026/05/31 15:56:27:097',3,0.525136,0.22326,1,0.5,0,1
1923,'2026/05/31 15:56:27:131',3,0.525566,0.223233,1,0.5,0,1
1924,'2026/05/31 15:56:27:165',3,0.525596,0.223018,1,0.5,0,1
1925,'2026/05/31 15:56:27:196',3,0.525847,0.222899,1,0.5,0,1
1926,'2026/05/31 15:56:27:231',3,0.526028,0.223037,1,0.5,0,1
1927,'2026/05/31 15:56:27:266',3,0.526199,0.223077,1,0.5,0,1
1928,'2026/05/31 15:56:27:300',3,0.526404,0.222745,1,0.5,0,1
1929,'2026/05/31 15:56:27:334',3,0.526734,0.222588,1,0.5,0,1
1930,'2026/05/31 15:56:27:366',3,0.526868,0.222578,1,0.5,0,1
1931,'2026/05/31 15:56:27:400',3,0.526778,0.222566,1,0.5,0,1
1932,'2026/05/31 15:56:27:432',3,0.526771,0.222133,1,0.5,0,1
1933,'2026/05/31 15:56:27:466',3,0.526773,0.221994,1,0.5,0,1
1934,'2026/05/31 15:56:27:500',3,0.526603,0.221639,1,0.5,0,1
1935,'2026/05/31 15:56:27:534',3,0.526156,0.221588,1,0.5,0,1
1936,'2026/05/31 15:56:27:568',3,0.525809,0.221898,1,0.5,0,1
1937,'2026/05/31 15:56:27:599',3,0.52554,0.221666,1,0.5,0,1
1938,'2026/05/31 15:56:27:633',3,0.524916,0.222182,1,0.5,0,1
1939,'2026/05/31 15:56:27:667',3,0.524351,0.222327,1,0.5,0,1
1940,'2026/05/31 15:56:27:700',3,0.523658,0.222166,1,0.5,0,1
1941,'2026/05/31 15:56:27:733',3,0.523289,0.222262,1,0.5,0,1
1942,'2026/05/31 15:56:27:766',3,0.522817,0.222252,1,0.5,0,1
1943,'2026/05/31 15:56:27:801',3,0.522452,0.221902,1,0.5,0,1
1944,'2026/05/31 15:56:27:832',3,0.521666,0.221763,1,0.5,0,1
1945,'2026/05/31 15:56:27:869',3,0.521475,0.221994,1,0.5,0,1
1946,'2026/05/31 15:56:27:900',3,0.521216,0.222103,1,0.5,0,1
1947,'2026/05/31 15:56:27:934',3,0.520952,0.222352,1,0.5,0,1
1948,'2026/05/31 15:56:27:966',3,0.520784,0.222624,1,0.5,0,1
1949,'2026/05/31 15:56:27:998',3,0.520281,0.223038,1,0.5,0,1
1950,'2026/05/31 15:56:28:034',3,0.51988,0.222424,1,0.5,0,1
1951,'2026/05/31 15:56:28:067',3,0.519033,0.22234,1,0.5,0,1
1952,'2026/05/31 15:56:28:102',3,0.518688,0.222376,1,0.5,0,1
1953,'2026/05/31 15:56:28:133',3,0.518041,0.222404,1,0.5,0,1
1954,'2026/05/31 15:56:28:167',3,0.517395,0.222786,1,0.5,0,1
1955,'2026/05/31 15:56:28:202',3,0.516802,0.222882,1,0.5,0,1
1956,'2026/05/31 15:56:28:233',3,0.51629,0.223266,1,0.5,0,1
1957,'2026/05/31 15:56:28:266',3,0.515732,0.22389,1,0.5,0,1
1958,'2026/05/31 15:56:28:299',3,0.515343,0.224065,1,0.5,0,1
1959,'2026/05/31 15:56:28:333',3,0.514867,0.224286,1,0.5,0,1
1960,'2026/05/31 15:56:28:367',3,0.514455,0.224546,1,0.5,0,1
1961,'2026/05/31 15:56:28:400',3,0.513988,0.224767,1,0.5,0,1
1962,'2026/05/31 15:56:28:434',3,0.51359,0.224252,1,0.5,0,1
1963,'2026/05/31 15:56:28:466',3,0.513176,0.224324,1,0.5,0,1
1964,'2026/05/31 15:56:28:501',3,0.512787,0.224112,1,0.5,0,1
1965,'2026/05/31 15:56:28:533',3,0.512131,0.223724,1,0.5,0,1
1966,'2026/05/31 15:56:28:568',3,0.511604,0.223576,1,0.5,0,1
1967,'2026/05/31 15:56:28:601',3,0.511081,0.223957,1,0.5,0,1
1968,'2026/05/31 15:56:28:633',3,0.510509,0.224451,1,0.5,0,1
1969,'2026/05/31 15:56:28:667',3,0.509996,0.225016,1,0.5,0,1
1970,'2026/05/31 15:56:28:699',3,0.509787,0.22564,1,0.5,0,1
1971,'2026/05/31 15:56:28:733',3,0.50957,0.225621,1,0.5,0,1
1972,'2026/05/31 15:56:28:766',3,0.509132,0.226108,1,0.5,0,1
1973,'2026/05/31 15:56:28:802',3,0.508909,0.226341,1,0.5,0,1
1974,'2026/05/31 15:56:28:834',3,0.508432,0.2266,1,0.5,0,1
1975,'2026/05/31 15:56:28:864',3,0.508083,0.22639,1,0.5,0,1
1976,'2026/05/31 15:56:28:898',3,0.507618,0.225934,1,0.5,0,1
1977,'2026/05/31 15:56:28:931',3,0.507322,0.225927,1,0.5,0,1
1978,'2026/05/31 15:56:28:965',3,0.506948,0.22584,1,0.5,0,1
1979,'2026/05/31 15:56:29:000',3,0.506986,0.225689,1,0.5,0,1
1980,'2026/05/31 15:56:29:034',3,0.507092,0.225479,1,0.5,0,1
1981,'2026/05/31 15:56:29:066',3,0.507038,0.225024,1,0.5,0,1
1982,'2026/05/31 15:56:29:099',3,0.507389,0.224688,1,0.5,0,1
1983,'2026/05/31 15:56:29:132',3,0.507587,0.225112,1,0.5,0,1
1984,'2026/05/31 15:56:29:167',3,0.507327,0.225975,1,0.5,0,1
1985,'2026/05/31 15:56:29:200',3,0.507459,0.226496,1,0.5,0,1
1986,'2026/05/31 15:56:29:234',3,0.507693,0.227415,1,0.5,0,1
1987,'2026/05/31 15:56:29:266',3,0.507386,0.228176,1,0.5,0,1
1988,'2026/05/31 15:56:29:299',3,0.506993,0.228519,1,0.5,0,1
1989,'2026/05/31 15:56:29:332',3,0.506872,0.229252,1,0.5,0,1
1990,'2026/05/31 15:56:29:367',3,0.506962,0.229533,1,0.5,0,1
1991,'2026/05/31 15:56:29:400',3,0.506963,0.229507,1,0.5,0,1
1992,'2026/05/31 15:56:29:434',3,0.506728,0.229747,1,0.5,0,1
1993,'2026/05/31 15:56:29:467',3,0.506444,0.229896,1,0.5,0,1
1994,'2026/05/31 15:56:29:500',3,0.506301,0.230049,1,0.5,0,1
1995,'2026/05/31 15:56:29:533',3,0.506088,0.230268,1,0.5,0,1
1996,'2026/05/31 15:56:29:565',3,0.506159,0.230462,1,0.5,0,1
1997,'2026/05/31 15:56:29:598',3,0.506313,0.230777,1,0.5,0,1
1998,'2026/05/31 15:56:29:632',3,0.50698,0.231463,1,0.5,0,1
1999,'2026/05/31 15:56:29:667',3,0.507773,0.232093,1,0.5,0,1
2000,'2026/05/31 15:56:29:700',3,0.508893,0.232648,1,0.5,0,1
2001,'2026/05/31 15:56:29:733',3,0.510291,0.233353,1,0.5,0,1
2002,'2026/05/31 15:56:29:768',3,0.511582,0.233398,1,0.5,0,1
2003,'2026/05/31 15:56:29:800',3,0.51215,0.233897,1,0.5,0,1
2004,'2026/05/31 15:56:29:833',3,0.512441,0.234428,1,0.5,0,1
2005,'2026/05/31 15:56:29:865',3,0.512557,0.234569,1,0.5,0,1
2006,'2026/05/31 15:56:29:899',3,0.511873,0.234304,1,0.5,0,1
2007,'2026/05/31 15:56:29:933',3,0.510692,0.234181,1,0.5,0,1
2008,'2026/05/31 15:56:29:965',3,0.509877,0.234891,1,0.5,0,1
2009,'2026/05/31 15:56:29:998',3,0.509782,0.23453,1,0.5,0,1
2010,'2026/05/31 15:56:30:031',3,0.509628,0.234565,1,0.5,0,1
2011,'2026/05/31 15:56:30:065',3,0.510093,0.235333,1,0.5,0,1
2012,'2026/05/31 15:56:30:099',3,0.510189,0.235422,1,0.5,0,1
2013,'2026/05/31 15:56:30:132',3,0.510571,0.235624,1,0.5,0,1
2014,'2026/05/31 15:56:30:166',3,0.510667,0.236101,1,0.5,0,1
2015,'2026/05/31 15:56:30:199',3,0.510636,0.236406,1,0.5,0,1
2016,'2026/05/31 15:56:30:233',3,0.510287,0.236665,1,0.5,0,1
2017,'2026/05/31 15:56:30:266',3,0.510256,0.236931,1,0.5,0,1
2018,'2026/05/31 15:56:30:299',3,0.510164,0.237051,1,0.5,0,1
2019,'2026/05/31 15:56:30:332',3,0.509989,0.236938,1,0.5,0,1
2020,'2026/05/31 15:56:30:365',3,0.509926,0.237101,1,0.5,0,1
2021,'2026/05/31 15:56:30:400',3,0.509994,0.236938,1,0.5,0,1
2022,'2026/05/31 15:56:30:432',3,0.510054,0.236895,1,0.5,0,1
2023,'2026/05/31 15:56:30:467',3,0.510288,0.236904,1,0.5,0,1
2024,'2026/05/31 15:56:30:500',3,0.510583,0.23731,1,0.5,0,1
2025,'2026/05/31 15:56:30:534',3,0.510807,0.237666,1,0.5,0,1
2026,'2026/05/31 15:56:30:567',3,0.511114,0.237891,1,0.5,0,1
2027,'2026/05/31 15:56:30:599',3,0.51133,0.238704,1,0.5,0,1
2028,'2026/05/31 15:56:30:635',3,0.511614,0.238961,1,0.5,0,1
2029,'2026/05/31 15:56:30:667',3,0.511498,0.238859,1,0.5,0,1
2030,'2026/05/31 15:56:30:701',3,0.511506,0.239114,1,0.5,0,1
2031,'2026/05/31 15:56:30:733',3,0.511471,0.239265,1,0.5,0,1
2032,'2026/05/31 15:56:30:768',3,0.51146,0.238796,1,0.5,0,1
2033,'2026/05/31 15:56:30:801',3,0.511217,0.238467,1,0.5,0,1
2034,'2026/05/31 15:56:30:833',3,0.511048,0.238841,1,0.5,0,1
2035,'2026/05/31 15:56:30:867',3,0.511279,0.23869,1,0.5,0,1
2036,'2026/05/31 15:56:30:900',3,0.511524,0.237676,1,0.5,0,1
2037,'2026/05/31 15:56:30:935',3,0.511878,0.237769,1,0.5,0,1
2038,'2026/05/31 15:56:30:967',3,0.512508,0.237689,1,0.5,0,1
2039,'2026/05/31 15:56:31:000',3,0.512624,0.236731,1,0.5,0,1
2040,'2026/05/31 15:56:31:035',3,0.512391,0.236526,1,0.5,0,1
2041,'2026/05/31 15:56:31:066',3,0.512429,0.236282,1,0.5,0,1
2042,'2026/05/31 15:56:31:101',3,0.512491,0.236091,1,0.5,0,1
2043,'2026/05/31 15:56:31:135',3,0.512564,0.236052,1,0.5,0,1
2044,'2026/05/31 15:56:31:166',3,0.513027,0.236946,1,0.5,0,1
2045,'2026/05/31 15:56:31:200',3,0.513062,0.2378,1,0.5,0,1
2046,'2026/05/31 15:56:46:103',4,0.485385,0.834867,1,0.5,1,1
2047,'2026/05/31 15:56:46:136',4,0.484671,0.833419,1,0.5,1,1
2048,'2026/05/31 15:56:46:167',4,0.484478,0.833086,1,0.5,1,1
2049,'2026/05/31 15:56:46:202',4,0.484932,0.836575,1,0.5,1,1
2050,'2026/05/31 15:56:46:234',4,0.485247,0.836924,1,0.5,1,1
2051,'2026/05/31 15:56:46:269',4,0.485897,0.836925,1,0.5,1,1
2052,'2026/05/31 15:56:46:301',4,0.486522,0.838367,1,0.5,1,1
2053,'2026/05/31 15:56:46:336',4,0.486902,0.836932,1,0.5,1,1
2054,'2026/05/31 15:56:46:370',4,0.487686,0.831539,1,0.5,1,1
2055,'2026/05/31 15:56:46:401',4,0.488182,0.826949,1,0.5,1,1
2056,'2026/05/31 15:56:46:435',4,0.488477,0.824093,1,0.5,1,1
2057,'2026/05/31 15:56:46:468',4,0.488935,0.819407,1,0.5,1,1
2058,'2026/05/31 15:56:46:502',4,0.489427,0.816877,1,0.5,1,1
2059,'2026/05/31 15:56:46:537',4,0.48991,0.816988,1,0.5,1,1
2060,'2026/05/31 15:56:46:567',4,0.490859,0.816483,1,0.5,1,1
2061,'2026/05/31 15:56:46:604',4,0.49182,0.816515,1,0.5,1,1
2062,'2026/05/31 15:56:46:633',4,0.493299,0.817653,1,0.5,1,1
2063,'2026/05/31 15:56:46:668',4,0.494686,0.819861,1,0.5,1,1
2064,'2026/05/31 15:56:46:702',4,0.495043,0.819386,1,0.5,1,1
2065,'2026/05/31 15:56:46:736',4,0.4952,0.819482,1,0.5,1,1
2066,'2026/05/31 15:56:46:770',4,0.495627,0.819985,1,0.5,1,1
2067,'2026/05/31 15:56:46:801',4,0.495739,0.819314,1,0.5,1,1
2068,'2026/05/31 15:56:46:835',4,0.495422,0.81919,1,0.5,1,1
2069,'2026/05/31 15:56:46:868',4,0.495212,0.818827,1,0.5,1,1
2070,'2026/05/31 15:56:46:899',4,0.495109,0.818955,1,0.5,1,1
2071,'2026/05/31 15:56:46:935',4,0.495009,0.818699,1,0.5,1,1
2072,'2026/05/31 15:56:46:965',4,0.494952,0.818941,1,0.5,1,1
2073,'2026/05/31 15:56:46:999',4,0.494812,0.820815,1,0.5,1,1
2074,'2026/05/31 15:56:47:032',4,0.494909,0.821397,1,0.5,1,1
2075,'2026/05/31 15:56:47:065',4,0.494792,0.82061,1,0.5,1,1
2076,'2026/05/31 15:56:47:099',4,0.494042,0.820565,1,0.5,1,1
2077,'2026/05/31 15:56:47:132',4,0.49334,0.820661,1,0.5,1,1
2078,'2026/05/31 15:56:47:165',4,0.492816,0.818773,1,0.5,1,1
2079,'2026/05/31 15:56:47:199',4,0.492396,0.818516,1,0.5,1,1
2080,'2026/05/31 15:56:47:232',4,0.492433,0.817853,1,0.5,1,1
2081,'2026/05/31 15:56:47:265',4,0.492803,0.816615,1,0.5,1,1
2082,'2026/05/31 15:56:47:298',4,0.492927,0.815695,1,0.5,1,1
2083,'2026/05/31 15:56:47:332',4,0.492627,0.814713,1,0.5,1,1
2084,'2026/05/31 15:56:47:366',4,0.491941,0.814383,1,0.5,1,1
2085,'2026/05/31 15:56:47:405',4,0.490833,0.814735,1,0.5,1,1
2086,'2026/05/31 15:56:47:435',4,0.489897,0.814747,1,0.5,1,1
2087,'2026/05/31 15:56:47:471',4,0.489642,0.814813,1,0.5,1,1
2088,'2026/05/31 15:56:47:501',4,0.489751,0.814474,1,0.5,1,1
2089,'2026/05/31 15:56:47:536',4,0.48999,0.814771,1,0.5,1,1
2090,'2026/05/31 15:56:47:569',4,0.490212,0.815122,1,0.5,1,1
2091,'2026/05/31 15:56:47:604',4,0.490177,0.814987,1,0.5,1,1
2092,'2026/05/31 15:56:47:637',4,0.489973,0.814953,1,0.5,1,1
2093,'2026/05/31 15:56:47:668',4,0.489827,0.814528,1,0.5,1,1
2094,'2026/05/31 15:56:47:704',4,0.489912,0.814494,1,0.5,1,1
2095,'2026/05/31 15:56:47:734',4,0.490092,0.814248,1,0.5,1,1
2096,'2026/05/31 15:56:47:771',4,0.490158,0.814232,1,0.5,1,1
2097,'2026/05/31 15:56:47:803',4,0.490206,0.814062,1,0.5,1,1
2098,'2026/05/31 15:56:47:835',4,0.490189,0.81346,1,0.5,1,1
2099,'2026/05/31 15:56:47:871',4,0.490043,0.813339,1,0.5,1,1
2100,'2026/05/31 15:56:47:902',4,0.489744,0.814029,1,0.5,1,1
2101,'2026/05/31 15:56:47:936',4,0.489281,0.815299,1,0.5,1,1
2102,'2026/05/31 15:56:47:969',4,0.488464,0.815858,1,0.5,1,1
2103,'2026/05/31 15:56:48:003',4,0.487683,0.815856,1,0.5,1,1
2104,'2026/05/31 15:56:48:037',4,0.487008,0.816048,1,0.5,1,1
2105,'2026/05/31 15:56:48:068',4,0.486594,0.816054,1,0.5,1,1
2106,'2026/05/31 15:56:48:104',4,0.486837,0.81593,1,0.5,1,1
2107,'2026/05/31 15:56:48:135',4,0.487055,0.815827,1,0.5,1,1
2108,'2026/05/31 15:56:48:169',4,0.486967,0.816366,1,0.5,1,1
2109,'2026/05/31 15:56:48:202',4,0.487186,0.816425,1,0.5,1,1
2110,'2026/05/31 15:56:48:236',4,0.486995,0.816586,1,0.5,1,1
2111,'2026/05/31 15:56:48:269',4,0.486817,0.816422,1,0.5,1,1
2112,'2026/05/31 15:56:48:298',4,0.486324,0.81598,1,0.5,1,1
2113,'2026/05/31 15:56:48:337',4,0.486134,0.816148,1,0.5,1,1
2114,'2026/05/31 15:56:48:368',4,0.486353,0.815905,1,0.5,1,1
2115,'2026/05/31 15:56:48:403',4,0.486292,0.816106,1,0.5,1,1
2116,'2026/05/31 15:56:48:435',4,0.486247,0.816483,1,0.5,1,1
2117,'2026/05/31 15:56:48:470',4,0.48591,0.816633,1,0.5,1,1
2118,'2026/05/31 15:56:48:503',4,0.485532,0.816677,1,0.5,1,1
2119,'2026/05/31 15:56:48:534',4,0.485302,0.817024,1,0.5,1,1
2120,'2026/05/31 15:56:48:569',4,0.485037,0.817154,1,0.5,1,1
2121,'2026/05/31 15:56:48:601',4,0.485078,0.816941,1,0.5,1,1
2122,'2026/05/31 15:56:48:636',4,0.484568,0.816594,1,0.5,1,1
2123,'2026/05/31 15:56:48:670',4,0.484762,0.81623,1,0.5,1,1
2124,'2026/05/31 15:56:48:701',4,0.485168,0.816487,1,0.5,1,1
2125,'2026/05/31 15:56:48:737',4,0.485774,0.817398,1,0.5,1,1
2126,'2026/05/31 15:56:48:768',4,0.486707,0.818381,1,0.5,1,1
2127,'2026/05/31 15:56:48:803',4,0.487563,0.818675,1,0.5,1,1
2128,'2026/05/31 15:56:48:836',4,0.487507,0.818378,1,0.5,1,1
2129,'2026/05/31 15:56:48:869',4,0.487533,0.818328,1,0.5,1,1
2130,'2026/05/31 15:56:48:903',4,0.487718,0.818311,1,0.5,1,1
2131,'2026/05/31 15:56:48:934',4,0.487804,0.81838,1,0.5,1,1
2132,'2026/05/31 15:56:48:969',4,0.48739,0.818598,1,0.5,1,1
2133,'2026/05/31 15:56:49:002',4,0.486665,0.818839,1,0.5,1,1
2134,'2026/05/31 15:56:49:037',4,0.485902,0.819287,1,0.5,1,1
2135,'2026/05/31 15:56:49:070',4,0.485317,0.819611,1,0.5,1,1
2136,'2026/05/31 15:56:49:102',4,0.484205,0.81973,1,0.5,1,1
2137,'2026/05/31 15:56:49:138',4,0.483701,0.819594,1,0.5,1,1
2138,'2026/05/31 15:56:49:168',4,0.483017,0.819366,1,0.5,1,1
2139,'2026/05/31 15:56:49:203',4,0.482611,0.819034,1,0.5,1,1
2140,'2026/05/31 15:56:49:235',4,0.482426,0.819213,1,0.5,1,1
2141,'2026/05/31 15:56:49:269',4,0.482467,0.819428,1,0.5,1,1
2142,'2026/05/31 15:56:49:303',4,0.48245,0.819403,1,0.5,1,1
2143,'2026/05/31 15:56:49:336',4,0.482188,0.819169,1,0.5,1,1
2144,'2026/05/31 15:56:49:370',4,0.481501,0.818268,1,0.5,1,1
2145,'2026/05/31 15:56:49:402',4,0.480704,0.817801,1,0.5,1,1
2146,'2026/05/31 15:56:49:437',4,0.480407,0.817294,1,0.5,1,1
2147,'2026/05/31 15:56:49:468',4,0.480421,0.816918,1,0.5,1,1
2148,'2026/05/31 15:56:49:503',4,0.480538,0.817371,1,0.5,1,1
2149,'2026/05/31 15:56:49:537',4,0.480762,0.817193,1,0.5,1,1
2150,'2026/05/31 15:56:49:568',4,0.480787,0.817053,1,0.5,1,1
2151,'2026/05/31 15:56:49:603',4,0.480698,0.817278,1,0.5,1,1
2152,'2026/05/31 15:56:49:635',4,0.480865,0.817148,1,0.5,1,1
2153,'2026/05/31 15:56:49:670',4,0.481501,0.817884,1,0.5,1,1
2154,'2026/05/31 15:56:49:704',4,0.481584,0.817138,1,0.5,1,1
2155,'2026/05/31 15:56:49:735',4,0.481523,0.817563,1,0.5,1,1
2156,'2026/05/31 15:56:49:771',4,0.481676,0.817719,1,0.5,1,1
2157,'2026/05/31 15:56:49:801',4,0.481582,0.817773,1,0.5,1,1
2158,'2026/05/31 15:56:49:836',4,0.481525,0.817985,1,0.5,1,1
2159,'2026/05/31 15:56:49:869',4,0.481621,0.81802,1,0.5,1,1
2160,'2026/05/31 15:56:49:903',4,0.481341,0.818343,1,0.5,1,1
2161,'2026/05/31 15:56:49:937',4,0.481073,0.818064,1,0.5,1,1
2162,'2026/05/31 15:56:49:968',4,0.480905,0.818149,1,0.5,1,1
2163,'2026/05/31 15:56:50:004',4,0.481148,0.817925,1,0.5,1,1
2164,'2026/05/31 15:56:50:034',4,0.481319,0.817304,1,0.5,1,1
2165,'2026/05/31 15:56:50:071',4,0.481513,0.817535,1,0.5,1,1
2166,'2026/05/31 15:56:50:104',4,0.481581,0.816371,1,0.5,1,1
2167,'2026/05/31 15:56:50:136',4,0.481787,0.815735,1,0.5,1,1
2168,'2026/05/31 15:56:50:171',4,0.482412,0.815285,1,0.5,1,1
2169,'2026/05/31 15:56:50:202',4,0.483085,0.814809,1,0.5,1,1
2170,'2026/05/31 15:56:50:235',4,0.483454,0.814463,1,0.5,1,1
2171,'2026/05/31 15:56:50:269',4,0.483644,0.814043,1,0.5,1,1
2172,'2026/05/31 15:56:50:304',4,0.483438,0.813941,1,0.5,1,1
2173,'2026/05/31 15:56:50:337',4,0.483653,0.814023,1,0.5,1,1
2174,'2026/05/31 15:56:50:369',4,0.483428,0.814013,1,0.5,1,1
2175,'2026/05/31 15:56:50:404',4,0.483562,0.814025,1,0.5,1,1
2176,'2026/05/31 15:56:50:435',4,0.483483,0.813674,1,0.5,1,1
2177,'2026/05/31 15:56:50:470',4,0.483435,0.813824,1,0.5,1,1
2178,'2026/05/31 15:56:50:501',4,0.483412,0.813733,1,0.5,1,1
2179,'2026/05/31 15:56:50:538',4,0.483424,0.813828,1,0.5,1,1
2180,'2026/05/31 15:56:50:570',4,0.483501,0.813816,1,0.5,1,1
2181,'2026/05/31 15:56:50:603',4,0.483326,0.813733,1,0.5,1,1
2182,'2026/05/31 15:56:50:637',4,0.483242,0.814098,1,0.5,1,1
2183,'2026/05/31 15:56:50:668',4,0.483349,0.814631,1,0.5,1,1
2184,'2026/05/31 15:56:50:703',4,0.483004,0.814883,1,0.5,1,1
2185,'2026/05/31 15:56:50:735',4,0.482707,0.814857,1,0.5,1,1
2186,'2026/05/31 15:56:50:770',4,0.482662,0.814846,1,0.5,1,1
2187,'2026/05/31 15:56:50:803',4,0.482143,0.814373,1,0.5,1,1
2188,'2026/05/31 15:56:50:836',4,0.48157,0.814682,1,0.5,1,1
2189,'2026/05/31 15:56:50:871',4,0.480786,0.814284,1,0.5,1,1
2190,'2026/05/31 15:56:50:902',4,0.480542,0.815259,1,0.5,1,1
2191,'2026/05/31 15:56:50:936',4,0.480053,0.81726,1,0.5,1,1
2192,'2026/05/31 15:56:50:969',4,0.479782,0.818925,1,0.5,1,1
2193,'2026/05/31 15:56:51:005',4,0.479721,0.819461,1,0.5,1,1
2194,'2026/05/31 15:56:51:037',4,0.479506,0.818682,1,0.5,1,1
2195,'2026/05/31 15:56:51:069',4,0.479281,0.818571,1,0.5,1,1
2196,'2026/05/31 15:56:51:105',4,0.479154,0.818191,1,0.5,1,1
2197,'2026/05/31 15:56:51:135',4,0.479306,0.817355,1,0.5,1,1
2198,'2026/05/31 15:56:51:169',4,0.479059,0.817117,1,0.5,1,1
2199,'2026/05/31 15:56:51:202',4,0.479279,0.816554,1,0.5,1,1
2200,'2026/05/31 15:56:51:238',4,0.478992,0.815717,1,0.5,1,1
2201,'2026/05/31 15:56:51:270',4,0.479062,0.814785,1,0.5,1,1
2202,'2026/05/31 15:56:51:303',4,0.479096,0.813645,1,0.5,1,1
2203,'2026/05/31 15:56:51:338',4,0.478835,0.811517,1,0.5,1,1
2204,'2026/05/31 15:56:51:368',4,0.478441,0.809591,1,0.5,1,1
2205,'2026/05/31 15:56:51:403',4,0.478525,0.809203,1,0.5,1,1
2206,'2026/05/31 15:56:51:436',4,0.478075,0.808293,1,0.5,1,1
2207,'2026/05/31 15:56:51:471',4,0.478272,0.807341,1,0.5,1,1
2208,'2026/05/31 15:56:51:504',4,0.478385,0.807206,1,0.5,1,1
2209,'2026/05/31 15:56:51:534',4,0.478131,0.806285,1,0.5,1,1
2210,'2026/05/31 15:56:51:572',4,0.477787,0.805365,1,0.5,1,1
2211,'2026/05/31 15:56:51:602',4,0.477765,0.805021,1,0.5,1,1
2212,'2026/05/31 15:56:51:636',4,0.477774,0.805067,1,0.5,1,1
2213,'2026/05/31 15:56:51:669',4,0.477875,0.805068,1,0.5,1,1
2214,'2026/05/31 15:56:51:704',4,0.477701,0.805704,1,0.5,1,1
2215,'2026/05/31 15:56:51:737',4,0.478652,0.806835,1,0.5,1,1
2216,'2026/05/31 15:56:51:768',4,0.479937,0.807752,1,0.5,1,1
2217,'2026/05/31 15:56:51:804',4,0.481478,0.808525,1,0.5,1,1
2218,'2026/05/31 15:56:51:834',4,0.483287,0.8086,1,0.5,1,1
2219,'2026/05/31 15:56:51:872',4,0.483837,0.809006,1,0.5,1,1
2220,'2026/05/31 15:56:51:903',4,0.484719,0.808336,1,0.5,1,1
2221,'2026/05/31 15:56:51:935',4,0.485401,0.808145,1,0.5,1,1
2222,'2026/05/31 15:56:51:971',4,0.48578,0.80652,1,0.5,1,1
2223,'2026/05/31 15:56:52:003',4,0.486005,0.805716,1,0.5,1,1
2224,'2026/05/31 15:56:52:036',4,0.485447,0.805876,1,0.5,1,1
2225,'2026/05/31 15:56:52:068',4,0.484694,0.805005,1,0.5,1,1
2226,'2026/05/31 15:56:52:105',4,0.483882,0.804932,1,0.5,1,1
2227,'2026/05/31 15:56:52:137',4,0.483768,0.804468,1,0.5,1,1
2228,'2026/05/31 15:56:52:169',4,0.483325,0.804587,1,0.5,1,1
2229,'2026/05/31 15:56:52:205',4,0.482641,0.804543,1,0.5,1,1
2230,'2026/05/31 15:56:52:235',4,0.482556,0.804134,1,0.5,1,1
2231,'2026/05/31 15:56:52:269',4,0.482396,0.803855,1,0.5,1,1
2232,'2026/05/31 15:56:52:302',4,0.481947,0.804026,1,0.5,1,1
2233,'2026/05/31 15:56:52:338',4,0.481211,0.804067,1,0.5,1,1
2234,'2026/05/31 15:56:52:370',4,0.481125,0.803996,1,0.5,1,1
2235,'2026/05/31 15:56:52:402',4,0.480605,0.803662,1,0.5,1,1
2236,'2026/05/31 15:56:52:438',4,0.480248,0.803482,1,0.5,1,1
2237,'2026/05/31 15:56:52:469',4,0.480724,0.803129,1,0.5,1,1
2238,'2026/05/31 15:56:52:503',4,0.480618,0.804613,1,0.5,1,1
2239,'2026/05/31 15:56:52:537',4,0.480701,0.805889,1,0.5,1,1
2240,'2026/05/31 15:56:52:570',4,0.481227,0.806239,1,0.5,1,1
2241,'2026/05/31 15:56:52:604',4,0.481502,0.806763,1,0.5,1,1
2242,'2026/05/31 15:56:52:635',4,0.481854,0.805896,1,0.5,1,1
2243,'2026/05/31 15:56:52:670',4,0.481971,0.805574,1,0.5,1,1
2244,'2026/05/31 15:56:52:701',4,0.48197,0.804837,1,0.5,1,1
2245,'2026/05/31 15:56:52:738',4,0.481863,0.803969,1,0.5,1,1
2246,'2026/05/31 15:56:52:770',4,0.481968,0.804604,1,0.5,1,1
2247,'2026/05/31 15:56:52:803',4,0.482435,0.80426,1,0.5,1,1
2248,'2026/05/31 15:56:52:838',4,0.482502,0.804424,1,0.5,1,1
2249,'2026/05/31 15:56:52:869',4,0.482644,0.803941,1,0.5,1,1
2250,'2026/05/31 15:56:52:903',4,0.481833,0.803565,1,0.5,1,1
2251,'2026/05/31 15:56:52:935',4,0.481395,0.80297,1,0.5,1,1
2252,'2026/05/31 15:56:52:972',4,0.481298,0.802603,1,0.5,1,1
2253,'2026/05/31 15:56:53:004',4,0.481249,0.802771,1,0.5,1,1
2254,'2026/05/31 15:56:53:036',4,0.481641,0.80369,1,0.5,1,1
2255,'2026/05/31 15:56:53:072',4,0.482058,0.804861,1,0.5,1,1
2256,'2026/05/31 15:56:53:102',4,0.482727,0.805497,1,0.5,1,1
2257,'2026/05/31 15:56:53:136',4,0.483506,0.805543,1,0.5,1,1
2258,'2026/05/31 15:56:53:169',4,0.483607,0.805057,1,0.5,1,1
2259,'2026/05/31 15:56:53:205',4,0.483694,0.805094,1,0.5,1,1
2260,'2026/05/31 15:56:53:237',4,0.48371,0.804959,1,0.5,1,1
2261,'2026/05/31 15:56:53:269',4,0.483878,0.804898,1,0.5,1,1
2262,'2026/05/31 15:56:53:305',4,0.484058,0.805598,1,0.5,1,1
2263,'2026/05/31 15:56:53:336',4,0.484228,0.805958,1,0.5,1,1
2264,'2026/05/31 15:56:53:369',4,0.484352,0.805827,1,0.5,1,1
2265,'2026/05/31 15:56:53:402',4,0.484166,0.805149,1,0.5,1,1
2266,'2026/05/31 15:56:53:437',4,0.484536,0.805549,1,0.5,1,1
2267,'2026/05/31 15:56:53:471',4,0.484935,0.805661,1,0.5,1,1
2268,'2026/05/31 15:56:53:502',4,0.48519,0.806447,1,0.5,1,1
2269,'2026/05/31 15:56:53:538',4,0.486166,0.806967,1,0.5,1,1
2270,'2026/05/31 15:56:53:569',4,0.486906,0.807181,1,0.5,1,1
2271,'2026/05/31 15:56:53:604',4,0.487962,0.80713,1,0.5,1,1
2272,'2026/05/31 15:56:53:637',4,0.488388,0.806804,1,0.5,1,1
2273,'2026/05/31 15:56:53:671',4,0.489053,0.806232,1,0.5,1,1
2274,'2026/05/31 15:56:53:704',4,0.489548,0.8057,1,0.5,1,1
2275,'2026/05/31 15:56:53:735',4,0.490141,0.805338,1,0.5,1,1
2276,'2026/05/31 15:56:53:771',4,0.491265,0.805551,1,0.5,1,1
2277,'2026/05/31 15:56:53:802',4,0.491923,0.805266,1,0.5,1,1
2278,'2026/05/31 15:56:53:838',4,0.492458,0.80508,1,0.5,1,1
2279,'2026/05/31 15:56:53:870',4,0.493057,0.805387,1,0.5,1,1
2280,'2026/05/31 15:56:53:902',4,0.493455,0.804264,1,0.5,1,1
2281,'2026/05/31 15:56:53:936',4,0.49337,0.804268,1,0.5,1,1
2282,'2026/05/31 15:56:53:968',4,0.493304,0.804444,1,0.5,1,1
2283,'2026/05/31 15:56:54:003',4,0.493006,0.804078,1,0.5,1,1
2284,'2026/05/31 15:56:54:035',4,0.492352,0.804249,1,0.5,1,1
2285,'2026/05/31 15:56:54:071',4,0.491961,0.804356,1,0.5,1,1
2286,'2026/05/31 15:56:54:103',4,0.492202,0.804159,1,0.5,1,1
2287,'2026/05/31 15:56:54:135',4,0.491974,0.802718,1,0.5,1,1
2288,'2026/05/31 15:56:54:171',4,0.492428,0.802204,1,0.5,1,1
2289,'2026/05/31 15:56:54:202',4,0.492782,0.802408,1,0.5,1,1
2290,'2026/05/31 15:56:54:236',4,0.492525,0.801853,1,0.5,1,1
2291,'2026/05/31 15:56:54:269',4,0.492799,0.802201,1,0.5,1,1
2292,'2026/05/31 15:56:54:305',4,0.493217,0.80241,1,0.5,1,1
2293,'2026/05/31 15:56:54:337',4,0.493714,0.802218,1,0.5,1,1
2294,'2026/05/31 15:56:54:369',4,0.494743,0.801079,1,0.5,1,1
2295,'2026/05/31 15:56:54:405',4,0.496135,0.801075,1,0.5,1,1
2296,'2026/05/31 15:56:54:436',4,0.497949,0.802072,1,0.5,1,1
2297,'2026/05/31 15:56:54:471',4,0.498721,0.803606,1,0.5,1,1
2298,'2026/05/31 15:56:54:503',4,0.499189,0.804587,1,0.5,1,1
2299,'2026/05/31 15:56:54:537',4,0.499366,0.805364,1,0.5,1,1
2300,'2026/05/31 15:56:54:570',4,0.499087,0.805621,1,0.5,1,1
2301,'2026/05/31 15:56:54:603',4,0.499406,0.804432,1,0.5,1,1
2302,'2026/05/31 15:56:54:637',4,0.499261,0.803751,1,0.5,1,1
2303,'2026/05/31 15:56:54:668',4,0.499507,0.803598,1,0.5,1,1
2304,'2026/05/31 15:56:54:705',4,0.49979,0.802515,1,0.5,1,1
2305,'2026/05/31 15:56:54:736',4,0.500531,0.802136,1,0.5,1,1
2306,'2026/05/31 15:56:54:770',4,0.501016,0.802337,1,0.5,1,1
2307,'2026/05/31 15:56:54:805',4,0.501413,0.801923,1,0.5,1,1
2308,'2026/05/31 15:56:54:836',4,0.501229,0.801972,1,0.5,1,1
2309,'2026/05/31 15:56:54:869',4,0.501428,0.801409,1,0.5,1,1
2310,'2026/05/31 15:56:54:903',4,0.502409,0.801293,1,0.5,1,1
2311,'2026/05/31 15:56:54:939',4,0.502423,0.800367,1,0.5,1,1
2312,'2026/05/31 15:56:54:971',4,0.502522,0.799811,1,0.5,1,1
2313,'2026/05/31 15:56:55:003',4,0.502672,0.799456,1,0.5,1,1
2314,'2026/05/31 15:56:55:037',4,0.503249,0.799571,1,0.5,1,1
2315,'2026/05/31 15:56:55:069',4,0.503276,0.799486,1,0.5,1,1
2316,'2026/05/31 15:56:55:103',4,0.503402,0.798847,1,0.5,1,1
2317,'2026/05/31 15:56:55:135',4,0.503584,0.799001,1,0.5,1,1
2318,'2026/05/31 15:56:55:172',4,0.504321,0.799562,1,0.5,1,1
2319,'2026/05/31 15:56:55:204',4,0.504749,0.79959,1,0.5,1,1
2320,'2026/05/31 15:56:55:235',4,0.506024,0.799843,1,0.5,1,1
2321,'2026/05/31 15:56:55:272',4,0.507514,0.799866,1,0.5,1,1
2322,'2026/05/31 15:56:55:302',4,0.508389,0.799649,1,0.5,1,1
2323,'2026/05/31 15:56:55:336',4,0.509019,0.799427,1,0.5,1,1
2324,'2026/05/31 15:56:55:367',4,0.509409,0.799081,1,0.5,1,1
2325,'2026/05/31 15:56:55:400',4,0.509464,0.797839,1,0.5,1,1
2326,'2026/05/31 15:56:55:433',4,0.509416,0.797465,1,0.5,1,1
2327,'2026/05/31 15:56:55:466',4,0.509096,0.797568,1,0.5,1,1
2328,'2026/05/31 15:56:55:499',4,0.50864,0.798108,1,0.5,1,1
2329,'2026/05/31 15:56:55:531',4,0.508058,0.798467,1,0.5,1,1
2330,'2026/05/31 15:56:55:566',4,0.508024,0.79749,1,0.5,1,1
2331,'2026/05/31 15:56:55:598',4,0.507942,0.797898,1,0.5,1,1
2332,'2026/05/31 15:56:55:630',4,0.507672,0.7978,1,0.5,1,1
2333,'2026/05/31 15:56:55:664',4,0.50748,0.797656,1,0.5,1,1
2334,'2026/05/31 15:56:55:697',4,0.507448,0.797512,1,0.5,1,1
2335,'2026/05/31 15:56:55:731',4,0.50719,0.797221,1,0.5,1,1
2336,'2026/05/31 15:56:55:765',4,0.506511,0.797302,1,0.5,1,1
2337,'2026/05/31 15:56:55:799',4,0.506183,0.796612,1,0.5,1,1
2338,'2026/05/31 15:56:55:833',4,0.505343,0.796408,1,0.5,1,1
2339,'2026/05/31 15:56:55:865',4,0.504483,0.79572,1,0.5,1,1
2340,'2026/05/31 15:56:55:900',4,0.50437,0.795756,1,0.5,1,1
2341,'2026/05/31 15:56:55:933',4,0.504373,0.795419,1,0.5,1,1
2342,'2026/05/31 15:56:55:965',4,0.504485,0.795992,1,0.5,1,1
2343,'2026/05/31 15:56:55:999',4,0.504619,0.795938,1,0.5,1,1
2344,'2026/05/31 15:56:56:032',4,0.504789,0.795693,1,0.5,1,1
2345,'2026/05/31 15:56:56:066',4,0.505045,0.79561,1,0.5,1,1
2346,'2026/05/31 15:56:56:098',4,0.504899,0.795489,1,0.5,1,1
2347,'2026/05/31 15:56:56:132',4,0.504915,0.795488,1,0.5,1,1
2348,'2026/05/31 15:56:56:166',4,0.504835,0.79557,1,0.5,1,1
2349,'2026/05/31 15:56:56:199',4,0.504745,0.795592,1,0.5,1,1
2350,'2026/05/31 15:56:56:232',4,0.504843,0.79584,1,0.5,1,1
2351,'2026/05/31 15:56:56:265',4,0.505048,0.795712,1,0.5,1,1
2352,'2026/05/31 15:56:56:300',4,0.50494,0.794769,1,0.5,1,1
2353,'2026/05/31 15:56:56:332',4,0.505576,0.794564,1,0.5,1,1
2354,'2026/05/31 15:56:56:365',4,0.505884,0.794218,1,0.5,1,1
2355,'2026/05/31 15:56:56:403',4,0.506261,0.793758,1,0.5,1,1
2356,'2026/05/31 15:56:56:437',4,0.50657,0.793571,1,0.5,1,1
2357,'2026/05/31 15:56:56:470',4,0.50713,0.792232,1,0.5,1,1
2358,'2026/05/31 15:56:56:502',4,0.506773,0.791778,1,0.5,1,1
2359,'2026/05/31 15:56:56:537',4,0.506453,0.790708,1,0.5,1,1
2360,'2026/05/31 15:56:56:568',4,0.506047,0.791137,1,0.5,1,1
2361,'2026/05/31 15:56:56:605',4,0.506101,0.791205,1,0.5,1,1
2362,'2026/05/31 15:56:56:638',4,0.505854,0.791812,1,0.5,1,1
2363,'2026/05/31 15:56:56:670',4,0.506003,0.791558,1,0.5,1,1
2364,'2026/05/31 15:56:56:705',4,0.505865,0.791761,1,0.5,1,1
2365,'2026/05/31 15:56:56:736',4,0.505941,0.791996,1,0.5,1,1
2366,'2026/05/31 15:56:56:769',4,0.505985,0.791533,1,0.5,1,1
2367,'2026/05/31 15:56:56:804',4,0.506069,0.791775,1,0.5,1,1
2368,'2026/05/31 15:56:56:837',4,0.506255,0.790776,1,0.5,1,1
2369,'2026/05/31 15:56:56:871',4,0.506446,0.789809,1,0.5,1,1
2370,'2026/05/31 15:56:56:903',4,0.506683,0.789265,1,0.5,1,1
2371,'2026/05/31 15:56:56:935',4,0.506293,0.787054,1,0.5,1,1
2372,'2026/05/31 15:56:56:968',4,0.50598,0.78643,1,0.5,1,1
2373,'2026/05/31 15:56:57:003',4,0.505865,0.786341,1,0.5,1,1
2374,'2026/05/31 15:56:57:037',4,0.506021,0.786139,1,0.5,1,1
2375,'2026/05/31 15:56:57:069',4,0.506371,0.785948,1,0.5,1,1
2376,'2026/05/31 15:56:57:104',4,0.506831,0.78582,1,0.5,1,1
2377,'2026/05/31 15:56:57:137',4,0.506792,0.78576,1,0.5,1,1
2378,'2026/05/31 15:56:57:169',4,0.507411,0.786024,1,0.5,1,1
2379,'2026/05/31 15:56:57:202',4,0.50755,0.785961,1,0.5,1,1
2380,'2026/05/31 15:56:57:235',4,0.507756,0.786487,1,0.5,1,1
2381,'2026/05/31 15:56:57:270',4,0.507672,0.787133,1,0.5,1,1
2382,'2026/05/31 15:56:57:302',4,0.507483,0.787208,1,0.5,1,1
2383,'2026/05/31 15:56:57:337',4,0.507643,0.787228,1,0.5,1,1
2384,'2026/05/31 15:56:57:368',4,0.507522,0.787922,1,0.5,1,1
2385,'2026/05/31 15:56:57:402',4,0.507529,0.78771,1,0.5,1,1
2386,'2026/05/31 15:56:57:435',4,0.508015,0.788201,1,0.5,1,1
2387,'2026/05/31 15:56:57:469',4,0.508219,0.788655,1,0.5,1,1
2388,'2026/05/31 15:56:57:504',4,0.508622,0.7883,1,0.5,1,1
2389,'2026/05/31 15:56:57:534',4,0.508512,0.788507,1,0.5,1,1
2390,'2026/05/31 15:56:57:567',4,0.508512,0.788564,1,0.5,1,1
2391,'2026/05/31 15:56:57:601',4,0.50842,0.788439,1,0.5,1,1
2392,'2026/05/31 15:56:57:632',4,0.508451,0.788978,1,0.5,1,1
2393,'2026/05/31 15:56:57:665',4,0.508223,0.790122,1,0.5,1,1
2394,'2026/05/31 15:56:57:698',4,0.507415,0.790356,1,0.5,1,1
2395,'2026/05/31 15:56:57:732',4,0.506695,0.791168,1,0.5,1,1
2396,'2026/05/31 15:56:57:765',4,0.506294,0.791306,1,0.5,1,1
2397,'2026/05/31 15:56:57:798',4,0.505426,0.791832,1,0.5,1,1
2398,'2026/05/31 15:56:57:831',4,0.505236,0.791952,1,0.5,1,1
2399,'2026/05/31 15:56:57:865',4,0.504821,0.792126,1,0.5,1,1
2400,'2026/05/31 15:56:57:899',4,0.504993,0.79259,1,0.5,1,1
2401,'2026/05/31 15:56:57:937',4,0.505164,0.792711,1,0.5,1,1
2402,'2026/05/31 15:56:57:972',4,0.505078,0.792632,1,0.5,1,1
2403,'2026/05/31 15:56:58:002',4,0.505265,0.792814,1,0.5,1,1
2404,'2026/05/31 15:56:58:037',4,0.505192,0.79326,1,0.5,1,1
2405,'2026/05/31 15:56:58:070',4,0.505464,0.793679,1,0.5,1,1
2406,'2026/05/31 15:56:58:103',4,0.50562,0.793747,1,0.5,1,1
2407,'2026/05/31 15:56:58:138',4,0.505388,0.794268,1,0.5,1,1
2408,'2026/05/31 15:56:58:169',4,0.505327,0.793972,1,0.5,1,1
2409,'2026/05/31 15:56:58:203',4,0.505103,0.794716,1,0.5,1,1
2410,'2026/05/31 15:56:58:236',4,0.504986,0.795285,1,0.5,1,1
2411,'2026/05/31 15:56:58:271',4,0.504782,0.795027,1,0.5,1,1
2412,'2026/05/31 15:56:58:304',4,0.504697,0.794851,1,0.5,1,1
2413,'2026/05/31 15:56:58:336',4,0.504514,0.795276,1,0.5,1,1
2414,'2026/05/31 15:56:58:372',4,0.50453,0.796073,1,0.5,1,1
2415,'2026/05/31 15:56:58:402',4,0.504561,0.795999,1,0.5,1,1
2416,'2026/05/31 15:56:58:437',4,0.504919,0.795861,1,0.5,1,1
2417,'2026/05/31 15:56:58:470',4,0.504675,0.796153,1,0.5,1,1
2418,'2026/05/31 15:56:58:505',4,0.504638,0.795356,1,0.5,1,1
2419,'2026/05/31 15:56:58:538',4,0.504629,0.795932,1,0.5,1,1
2420,'2026/05/31 15:56:58:570',4,0.504462,0.795822,1,0.5,1,1
2421,'2026/05/31 15:56:58:604',4,0.504096,0.796171,1,0.5,1,1
2422,'2026/05/31 15:56:58:635',4,0.503942,0.795913,1,0.5,1,1
2423,'2026/05/31 15:56:58:671',4,0.503676,0.79537,1,0.5,1,1
2424,'2026/05/31 15:56:58:704',4,0.503501,0.795002,1,0.5,1,1
2425,'2026/05/31 15:56:58:737',4,0.503421,0.795043,1,0.5,1,1
2426,'2026/05/31 15:56:58:772',4,0.503434,0.795464,1,0.5,1,1
2427,'2026/05/31 15:56:58:803',4,0.503513,0.796285,1,0.5,1,1
2428,'2026/05/31 15:56:58:836',4,0.503544,0.797466,1,0.5,1,1
2429,'2026/05/31 15:56:58:870',4,0.503709,0.798864,1,0.5,1,1
2430,'2026/05/31 15:56:58:905',4,0.503688,0.798275,1,0.5,1,1
2431,'2026/05/31 15:56:58:935',4,0.503565,0.798546,1,0.5,1,1
2432,'2026/05/31 15:56:58:970',4,0.503625,0.798445,1,0.5,1,1
2433,'2026/05/31 15:56:59:004',4,0.503517,0.798724,1,0.5,1,1
2434,'2026/05/31 15:56:59:036',4,0.503617,0.798713,1,0.5,1,1
2435,'2026/05/31 15:56:59:070',4,0.503428,0.798695,1,0.5,1,1
2436,'2026/05/31 15:56:59:102',4,0.503442,0.798564,1,0.5,1,1
2437,'2026/05/31 15:56:59:137',4,0.503058,0.798694,1,0.5,1,1
2438,'2026/05/31 15:56:59:170',4,0.502877,0.798642,1,0.5,1,1
2439,'2026/05/31 15:56:59:202',4,0.502796,0.798556,1,0.5,1,1
2440,'2026/05/31 15:56:59:238',4,0.502892,0.798805,1,0.5,1,1
2441,'2026/05/31 15:56:59:267',4,0.503043,0.798573,1,0.5,1,1
2442,'2026/05/31 15:56:59:302',4,0.502984,0.798116,1,0.5,1,1
2443,'2026/05/31 15:56:59:335',4,0.503138,0.79847,1,0.5,1,1
2444,'2026/05/31 15:56:59:370',4,0.503229,0.79749,1,0.5,1,1
2445,'2026/05/31 15:56:59:404',4,0.503202,0.797167,1,0.5,1,1
2446,'2026/05/31 15:56:59:436',4,0.503114,0.797085,1,0.5,1,1
2447,'2026/05/31 15:56:59:466',4,0.503659,0.797715,1,0.5,1,1
2448,'2026/05/31 15:56:59:501',4,0.5036,0.797235,1,0.5,1,1
2449,'2026/05/31 15:56:59:535',4,0.503887,0.797755,1,0.5,1,1
2450,'2026/05/31 15:56:59:569',4,0.50393,0.797145,1,0.5,1,1
2451,'2026/05/31 15:56:59:602',4,0.504001,0.796938,1,0.5,1,1
2452,'2026/05/31 15:56:59:636',4,0.503972,0.797728,1,0.5,1,1
2453,'2026/05/31 15:56:59:668',4,0.503827,0.797401,1,0.5,1,1
2454,'2026/05/31 15:56:59:703',4,0.503797,0.797305,1,0.5,1,1
2455,'2026/05/31 15:56:59:734',4,0.503665,0.797734,1,0.5,1,1
2456,'2026/05/31 15:56:59:769',4,0.503643,0.797993,1,0.5,1,1
2457,'2026/05/31 15:56:59:801',4,0.50357,0.797363,1,0.5,1,1
2458,'2026/05/31 15:56:59:835',4,0.503538,0.796787,1,0.5,1,1
2459,'2026/05/31 15:56:59:868',4,0.503389,0.796864,1,0.5,1,1
2460,'2026/05/31 15:56:59:901',4,0.503579,0.796911,1,0.5,1,1
2461,'2026/05/31 15:56:59:937',4,0.503942,0.796128,1,0.5,1,1
2462,'2026/05/31 15:56:59:968',4,0.504159,0.79626,1,0.5,1,1
2463,'2026/05/31 15:57:00:004',4,0.504484,0.795941,1,0.5,1,1
2464,'2026/05/31 15:57:00:034',4,0.505085,0.795464,1,0.5,1,1
2465,'2026/05/31 15:57:00:068',4,0.506296,0.795148,1,0.5,1,1
2466,'2026/05/31 15:57:00:103',4,0.50705,0.795191,1,0.5,1,1
2467,'2026/05/31 15:57:00:135',4,0.50754,0.795233,1,0.5,1,1
2468,'2026/05/31 15:57:00:170',4,0.507474,0.794749,1,0.5,1,1
2469,'2026/05/31 15:57:00:202',4,0.507897,0.794754,1,0.5,1,1
2470,'2026/05/31 15:57:00:236',4,0.50797,0.794826,1,0.5,1,1
2471,'2026/05/31 15:57:00:270',4,0.507905,0.794779,1,0.5,1,1
2472,'2026/05/31 15:57:00:302',4,0.50783,0.794844,1,0.5,1,1
2473,'2026/05/31 15:57:00:338',4,0.507655,0.795814,1,0.5,1,1
2474,'2026/05/31 15:57:00:368',4,0.507401,0.796223,1,0.5,1,1
2475,'2026/05/31 15:57:00:403',4,0.507261,0.796194,1,0.5,1,1
2476,'2026/05/31 15:57:00:437',4,0.507055,0.796245,1,0.5,1,1
2477,'2026/05/31 15:57:00:470',4,0.506539,0.795896,1,0.5,1,1
2478,'2026/05/31 15:57:00:505',4,0.506697,0.796298,1,0.5,1,1
2479,'2026/05/31 15:57:00:535',4,0.506857,0.796538,1,0.5,1,1
2480,'2026/05/31 15:57:00:570',4,0.506719,0.796491,1,0.5,1,1
2481,'2026/05/31 15:57:00:603',4,0.506738,0.796509,1,0.5,1,1
2482,'2026/05/31 15:57:00:638',4,0.506797,0.796424,1,0.5,1,1
2483,'2026/05/31 15:57:00:670',4,0.506507,0.796401,1,0.5,1,1
2484,'2026/05/31 15:57:00:703',4,0.506402,0.796098,1,0.5,1,1
2485,'2026/05/31 15:57:00:739',4,0.505803,0.794861,1,0.5,1,1
2486,'2026/05/31 15:57:00:769',4,0.50557,0.795132,1,0.5,1,1
2487,'2026/05/31 15:57:00:803',4,0.50559,0.795059,1,0.5,1,1
2488,'2026/05/31 15:57:00:836',4,0.505493,0.794513,1,0.5,1,1
2489,'2026/05/31 15:57:00:872',4,0.50545,0.79496,1,0.5,1,1
2490,'2026/05/31 15:57:00:904',4,0.50487,0.794134,1,0.5,1,1
2491,'2026/05/31 15:57:00:936',4,0.504731,0.793882,1,0.5,1,1
2492,'2026/05/31 15:57:00:972',4,0.50377,0.793658,1,0.5,1,1
2493,'2026/05/31 15:57:01:003',4,0.503652,0.793547,1,0.5,1,1
2494,'2026/05/31 15:57:01:036',4,0.503033,0.793676,1,0.5,1,1
2495,'2026/05/31 15:57:01:071',4,0.503157,0.794123,1,0.5,1,1
2496,'2026/05/31 15:57:01:105',4,0.503012,0.793932,1,0.5,1,1
2497,'2026/05/31 15:57:01:138',4,0.503362,0.794704,1,0.5,1,1
2498,'2026/05/31 15:57:01:170',4,0.50378,0.794378,1,0.5,1,1
2499,'2026/05/31 15:57:01:203',4,0.504073,0.793966,1,0.5,1,1
2500,'2026/05/31 15:57:01:235',4,0.50448,0.79444,1,0.5,1,1
2501,'2026/05/31 15:57:01:271',4,0.504428,0.794466,1,0.5,1,1
2502,'2026/05/31 15:57:01:304',4,0.504726,0.794756,1,0.5,1,1
2503,'2026/05/31 15:57:01:339',4,0.504607,0.793995,1,0.5,1,1
2504,'2026/05/31 15:57:01:372',4,0.504697,0.793988,1,0.5,1,1
2505,'2026/05/31 15:57:01:404',4,0.504696,0.79424,1,0.5,1,1
2506,'2026/05/31 15:57:01:439',4,0.504793,0.794206,1,0.5,1,1
2507,'2026/05/31 15:57:01:470',4,0.505247,0.794749,1,0.5,1,1
2508,'2026/05/31 15:57:01:505',4,0.504922,0.794806,1,0.5,1,1
2509,'2026/05/31 15:57:01:538',4,0.504963,0.79473,1,0.5,1,1
2510,'2026/05/31 15:57:01:571',4,0.505074,0.794759,1,0.5,1,1
2511,'2026/05/31 15:57:01:605',4,0.505211,0.794892,1,0.5,1,1
2512,'2026/05/31 15:57:01:636',4,0.505244,0.79484,1,0.5,1,1
2513,'2026/05/31 15:57:01:670',4,0.505264,0.794966,1,0.5,1,1
2514,'2026/05/31 15:57:01:703',4,0.505203,0.794501,1,0.5,1,1
2515,'2026/05/31 15:57:01:737',4,0.5054,0.794777,1,0.5,1,1
2516,'2026/05/31 15:57:01:771',4,0.505293,0.795302,1,0.5,1,1
2517,'2026/05/31 15:57:01:802',4,0.505324,0.795324,1,0.5,1,1
2518,'2026/05/31 15:57:01:838',4,0.505244,0.795449,1,0.5,1,1
2519,'2026/05/31 15:57:01:869',4,0.505235,0.795603,1,0.5,1,1
2520,'2026/05/31 15:57:01:903',4,0.505393,0.795795,1,0.5,1,1
2521,'2026/05/31 15:57:01:937',4,0.505493,0.796635,1,0.5,1,1
2522,'2026/05/31 15:57:01:970',4,0.505708,0.796162,1,0.5,1,1
2523,'2026/05/31 15:57:02:005',4,0.505518,0.795966,1,0.5,1,1
2524,'2026/05/31 15:57:02:036',4,0.505723,0.796098,1,0.5,1,1
2525,'2026/05/31 15:57:02:071',4,0.505449,0.796126,1,0.5,1,1
2526,'2026/05/31 15:57:02:102',4,0.505409,0.79616,1,0.5,1,1
2527,'2026/05/31 15:57:02:136',4,0.505339,0.795717,1,0.5,1,1
2528,'2026/05/31 15:57:02:170',4,0.505027,0.795741,1,0.5,1,1
2529,'2026/05/31 15:57:02:204',4,0.503941,0.794817,1,0.5,1,1
2530,'2026/05/31 15:57:02:238',4,0.503282,0.79493,1,0.5,1,1
2531,'2026/05/31 15:57:02:269',4,0.502962,0.79477,1,0.5,1,1
2532,'2026/05/31 15:57:02:304',4,0.502544,0.794979,1,0.5,1,1
2533,'2026/05/31 15:57:02:336',4,0.502203,0.794926,1,0.5,1,1
2534,'2026/05/31 15:57:02:371',4,0.502478,0.795678,1,0.5,1,1
2535,'2026/05/31 15:57:02:405',4,0.502844,0.795881,1,0.5,1,1
2536,'2026/05/31 15:57:02:436',4,0.502779,0.796564,1,0.5,1,1
2537,'2026/05/31 15:57:02:472',4,0.502707,0.796314,1,0.5,1,1
2538,'2026/05/31 15:57:02:502',4,0.502774,0.796267,1,0.5,1,1
2539,'2026/05/31 15:57:02:538',4,0.502524,0.796204,1,0.5,1,1
2540,'2026/05/31 15:57:02:569',4,0.502376,0.79571,1,0.5,1,1
2541,'2026/05/31 15:57:02:605',4,0.502002,0.795735,1,0.5,1,1
2542,'2026/05/31 15:57:02:638',4,0.502383,0.795757,1,0.5,1,1
2543,'2026/05/31 15:57:02:670',4,0.502155,0.79544,1,0.5,1,1
2544,'2026/05/31 15:57:02:705',4,0.502328,0.795791,1,0.5,1,1
2545,'2026/05/31 15:57:02:736',4,0.502299,0.795688,1,0.5,1,1
2546,'2026/05/31 15:57:02:772',4,0.502107,0.795425,1,0.5,1,1
2547,'2026/05/31 15:57:02:803',4,0.502135,0.795993,1,0.5,1,1
2548,'2026/05/31 15:57:02:838',4,0.501906,0.79638,1,0.5,1,1
2549,'2026/05/31 15:57:02:871',4,0.502056,0.796954,1,0.5,1,1
2550,'2026/05/31 15:57:02:904',4,0.50198,0.797417,1,0.5,1,1
2551,'2026/05/31 15:57:02:939',4,0.502038,0.797127,1,0.5,1,1
2552,'2026/05/31 15:57:02:970',4,0.502079,0.79739,1,0.5,1,1
2553,'2026/05/31 15:57:03:004',4,0.502159,0.796885,1,0.5,1,1
2554,'2026/05/31 15:57:03:037',4,0.501928,0.796942,1,0.5,1,1
2555,'2026/05/31 15:57:03:072',4,0.502068,0.79724,1,0.5,1,1
2556,'2026/05/31 15:57:03:105',4,0.502309,0.796767,1,0.5,1,1
2557,'2026/05/31 15:57:03:137',4,0.502326,0.796448,1,0.5,1,1
2558,'2026/05/31 15:57:03:173',4,0.502366,0.796598,1,0.5,1,1
2559,'2026/05/31 15:57:03:201',4,0.502416,0.796414,1,0.5,1,1
2560,'2026/05/31 15:57:03:236',4,0.502336,0.79549,1,0.5,1,1
2561,'2026/05/31 15:57:03:270',4,0.502503,0.795316,1,0.5,1,1
2562,'2026/05/31 15:57:03:306',4,0.502501,0.796312,1,0.5,1,1
2563,'2026/05/31 15:57:03:338',4,0.502669,0.796449,1,0.5,1,1
2564,'2026/05/31 15:57:03:370',4,0.50335,0.797406,1,0.5,1,1
2565,'2026/05/31 15:57:03:406',4,0.503484,0.79797,1,0.5,1,1
2566,'2026/05/31 15:57:03:437',4,0.503514,0.797362,1,0.5,1,1
2567,'2026/05/31 15:57:03:472',4,0.503673,0.796986,1,0.5,1,1
2568,'2026/05/31 15:57:03:505',4,0.503471,0.795826,1,0.5,1,1
2569,'2026/05/31 15:57:03:537',4,0.50343,0.794367,1,0.5,1,1
2570,'2026/05/31 15:57:03:568',4,0.502651,0.793362,1,0.5,1,1
2571,'2026/05/31 15:57:03:599',4,0.502716,0.793879,1,0.5,1,1
2572,'2026/05/31 15:57:03:633',4,0.50342,0.794373,1,0.5,1,1
2573,'2026/05/31 15:57:03:668',4,0.503816,0.794572,1,0.5,1,1
2574,'2026/05/31 15:57:03:705',4,0.503923,0.794876,1,0.5,1,1
2575,'2026/05/31 15:57:03:737',4,0.503768,0.795023,1,0.5,1,1
2576,'2026/05/31 15:57:03:770',4,0.503861,0.794995,1,0.5,1,1
2577,'2026/05/31 15:57:03:805',4,0.503984,0.795059,1,0.5,1,1
2578,'2026/05/31 15:57:03:836',4,0.503547,0.794079,1,0.5,1,1
2579,'2026/05/31 15:57:03:869',4,0.503328,0.794485,1,0.5,1,1
2580,'2026/05/31 15:57:03:904',4,0.503488,0.794493,1,0.5,1,1
2581,'2026/05/31 15:57:03:938',4,0.503325,0.794567,1,0.5,1,1
2582,'2026/05/31 15:57:03:971',4,0.503558,0.794793,1,0.5,1,1
2583,'2026/05/31 15:57:04:003',4,0.50347,0.79438,1,0.5,1,1
2584,'2026/05/31 15:57:04:038',4,0.503218,0.793731,1,0.5,1,1
2585,'2026/05/31 15:57:04:070',4,0.502791,0.794039,1,0.5,1,1
2586,'2026/05/31 15:57:04:104',4,0.50311,0.794082,1,0.5,1,1
2587,'2026/05/31 15:57:04:138',4,0.503508,0.793793,1,0.5,1,1
2588,'2026/05/31 15:57:04:171',4,0.503712,0.794267,1,0.5,1,1
2589,'2026/05/31 15:57:04:204',4,0.503936,0.793762,1,0.5,1,1
2590,'2026/05/31 15:57:04:234',4,0.504305,0.793952,1,0.5,1,1
2591,'2026/05/31 15:57:04:270',4,0.504249,0.793952,1,0.5,1,1
2592,'2026/05/31 15:57:04:302',4,0.504214,0.794151,1,0.5,1,1
2593,'2026/05/31 15:57:04:339',4,0.504381,0.793756,1,0.5,1,1
2594,'2026/05/31 15:57:04:370',4,0.504449,0.794967,1,0.5,1,1
2595,'2026/05/31 15:57:04:403',4,0.504916,0.79614,1,0.5,1,1
2596,'2026/05/31 15:57:04:438',4,0.504879,0.796164,1,0.5,1,1
2597,'2026/05/31 15:57:04:470',4,0.50512,0.796864,1,0.5,1,1
2598,'2026/05/31 15:57:04:503',4,0.504967,0.796675,1,0.5,1,1
2599,'2026/05/31 15:57:04:536',4,0.50493,0.796966,1,0.5,1,1
2600,'2026/05/31 15:57:04:571',4,0.504566,0.797061,1,0.5,1,1
2601,'2026/05/31 15:57:04:604',4,0.504284,0.79675,1,0.5,1,1
2602,'2026/05/31 15:57:04:638',4,0.504261,0.797583,1,0.5,1,1
2603,'2026/05/31 15:57:04:672',4,0.504271,0.798253,1,0.5,1,1
2604,'2026/05/31 15:57:04:703',4,0.504411,0.798824,1,0.5,1,1
2605,'2026/05/31 15:57:04:738',4,0.503953,0.799909,1,0.5,1,1
2606,'2026/05/31 15:57:04:769',4,0.503946,0.799994,1,0.5,1,1
2607,'2026/05/31 15:57:04:805',4,0.503533,0.800007,1,0.5,1,1
2608,'2026/05/31 15:57:04:838',4,0.503198,0.800305,1,0.5,1,1
2609,'2026/05/31 15:57:04:871',4,0.502588,0.800485,1,0.5,1,1
2610,'2026/05/31 15:57:04:906',4,0.502783,0.801525,1,0.5,1,1
2611,'2026/05/31 15:57:04:935',4,0.502544,0.801167,1,0.5,1,1
2612,'2026/05/31 15:57:04:972',4,0.501968,0.801306,1,0.5,1,1
2613,'2026/05/31 15:57:05:005',4,0.501877,0.802188,1,0.5,1,1
2614,'2026/05/31 15:57:05:038',4,0.501433,0.802373,1,0.5,1,1
2615,'2026/05/31 15:57:05:072',4,0.501152,0.803403,1,0.5,1,1
2616,'2026/05/31 15:57:05:104',4,0.501099,0.803484,1,0.5,1,1
2617,'2026/05/31 15:57:05:138',4,0.501073,0.803479,1,0.5,1,1
2618,'2026/05/31 15:57:05:171',4,0.501622,0.804055,1,0.5,1,1
2619,'2026/05/31 15:57:05:205',4,0.501308,0.803409,1,0.5,1,1
2620,'2026/05/31 15:57:05:238',4,0.501879,0.804679,1,0.5,1,1
2621,'2026/05/31 15:57:05:270',4,0.502289,0.805154,1,0.5,1,1
2622,'2026/05/31 15:57:05:306',4,0.502427,0.804771,1,0.5,1,1
2623,'2026/05/31 15:57:05:337',4,0.502208,0.804388,1,0.5,1,1
2624,'2026/05/31 15:57:05:372',4,0.502178,0.804279,1,0.5,1,1
2625,'2026/05/31 15:57:05:404',4,0.502486,0.80509,1,0.5,1,1
2626,'2026/05/31 15:57:05:437',4,0.502786,0.805047,1,0.5,1,1
2627,'2026/05/31 15:57:05:471',4,0.502818,0.80478,1,0.5,1,1
2628,'2026/05/31 15:57:05:501',4,0.5033,0.804932,1,0.5,1,1
2629,'2026/05/31 15:57:05:538',4,0.50376,0.805363,1,0.5,1,1
2630,'2026/05/31 15:57:05:567',4,0.50423,0.805148,1,0.5,1,1
2631,'2026/05/31 15:57:05:599',4,0.50429,0.805688,1,0.5,1,1
2632,'2026/05/31 15:57:05:635',4,0.504737,0.806535,1,0.5,1,1
2633,'2026/05/31 15:57:05:669',4,0.504776,0.806683,1,0.5,1,1
2634,'2026/05/31 15:57:05:700',4,0.504537,0.806594,1,0.5,1,1
2635,'2026/05/31 15:57:05:733',4,0.504694,0.80645,1,0.5,1,1
2636,'2026/05/31 15:57:05:767',4,0.504277,0.806759,1,0.5,1,1
2637,'2026/05/31 15:57:05:799',4,0.503726,0.806879,1,0.5,1,1
2638,'2026/05/31 15:57:05:833',4,0.503512,0.807057,1,0.5,1,1
2639,'2026/05/31 15:57:05:867',4,0.503187,0.80676,1,0.5,1,1
2640,'2026/05/31 15:57:05:900',4,0.502889,0.807665,1,0.5,1,1
2641,'2026/05/31 15:57:05:934',4,0.502596,0.80797,1,0.5,1,1
2642,'2026/05/31 15:57:05:967',4,0.502462,0.808142,1,0.5,1,1
2643,'2026/05/31 15:57:06:000',4,0.501682,0.80843,1,0.5,1,1
2644,'2026/05/31 15:57:06:033',4,0.501913,0.809088,1,0.5,1,1
2645,'2026/05/31 15:57:06:067',4,0.50168,0.809145,1,0.5,1,1
2646,'2026/05/31 15:57:06:100',4,0.501943,0.808685,1,0.5,1,1
2647,'2026/05/31 15:57:06:134',4,0.501974,0.808897,1,0.5,1,1
2648,'2026/05/31 15:57:06:167',4,0.502473,0.808718,1,0.5,1,1
2649,'2026/05/31 15:57:06:200',4,0.502843,0.808993,1,0.5,1,1
2650,'2026/05/31 15:57:06:234',4,0.503065,0.808602,1,0.5,1,1
2651,'2026/05/31 15:57:06:268',4,0.503283,0.808187,1,0.5,1,1
2652,'2026/05/31 15:57:06:301',4,0.503886,0.808015,1,0.5,1,1
2653,'2026/05/31 15:57:06:334',4,0.504331,0.807944,1,0.5,1,1
2654,'2026/05/31 15:57:06:368',4,0.504172,0.807934,1,0.5,1,1
2655,'2026/05/31 15:57:06:401',4,0.504238,0.80792,1,0.5,1,1
2656,'2026/05/31 15:57:06:434',4,0.504288,0.808054,1,0.5,1,1
2657,'2026/05/31 15:57:06:467',4,0.50427,0.80788,1,0.5,1,1
2658,'2026/05/31 15:57:06:501',4,0.504387,0.807996,1,0.5,1,1
2659,'2026/05/31 15:57:06:534',4,0.50438,0.808011,1,0.5,1,1
2660,'2026/05/31 15:57:06:567',4,0.504237,0.807718,1,0.5,1,1
2661,'2026/05/31 15:57:06:601',4,0.504045,0.807628,1,0.5,1,1
2662,'2026/05/31 15:57:06:635',4,0.503843,0.807821,1,0.5,1,1
2663,'2026/05/31 15:57:06:667',4,0.503585,0.807796,1,0.5,1,1
2664,'2026/05/31 15:57:06:701',4,0.503769,0.807644,1,0.5,1,1
2665,'2026/05/31 15:57:06:739',4,0.503669,0.808051,1,0.5,1,1
2666,'2026/05/31 15:57:06:769',4,0.503896,0.807718,1,0.5,1,1
2667,'2026/05/31 15:57:06:806',4,0.503388,0.807873,1,0.5,1,1
2668,'2026/05/31 15:57:06:835',4,0.503461,0.807856,1,0.5,1,1
2669,'2026/05/31 15:57:06:871',4,0.503531,0.808293,1,0.5,1,1
2670,'2026/05/31 15:57:06:903',4,0.503704,0.808312,1,0.5,1,1
2671,'2026/05/31 15:57:06:939',4,0.503756,0.808343,1,0.5,1,1
2672,'2026/05/31 15:57:06:971',4,0.503961,0.808269,1,0.5,1,1
2673,'2026/05/31 15:57:07:004',4,0.503781,0.807875,1,0.5,1,1
2674,'2026/05/31 15:57:07:040',4,0.503893,0.807697,1,0.5,1,1
2675,'2026/05/31 15:57:07:070',4,0.50377,0.807062,1,0.5,1,1
2676,'2026/05/31 15:57:07:105',4,0.502961,0.806583,1,0.5,1,1
2677,'2026/05/31 15:57:07:136',4,0.50313,0.807344,1,0.5,1,1
2678,'2026/05/31 15:57:07:173',4,0.503051,0.806191,1,0.5,1,1
2679,'2026/05/31 15:57:07:205',4,0.503548,0.806556,1,0.5,1,1
2680,'2026/05/31 15:57:07:237',4,0.50333,0.807065,1,0.5,1,1
2681,'2026/05/31 15:57:07:273',4,0.50392,0.807194,1,0.5,1,1
2682,'2026/05/31 15:57:07:304',4,0.504161,0.807122,1,0.5,1,1
2683,'2026/05/31 15:57:07:339',4,0.504318,0.806811,1,0.5,1,1
2684,'2026/05/31 15:57:07:372',4,0.504283,0.807339,1,0.5,1,1
2685,'2026/05/31 15:57:07:405',4,0.504132,0.807064,1,0.5,1,1
2686,'2026/05/31 15:57:07:440',4,0.504057,0.807302,1,0.5,1,1
2687,'2026/05/31 15:57:07:470',4,0.503759,0.806964,1,0.5,1,1
2688,'2026/05/31 15:57:07:505',4,0.503659,0.807195,1,0.5,1,1
2689,'2026/05/31 15:57:07:538',4,0.5038,0.807244,1,0.5,1,1
2690,'2026/05/31 15:57:07:571',4,0.503559,0.807354,1,0.5,1,1
2691,'2026/05/31 15:57:07:605',4,0.503486,0.807122,1,0.5,1,1
2692,'2026/05/31 15:57:07:637',4,0.50269,0.806824,1,0.5,1,1
2693,'2026/05/31 15:57:07:672',4,0.502252,0.807366,1,0.5,1,1
2694,'2026/05/31 15:57:07:703',4,0.501903,0.807198,1,0.5,1,1
2695,'2026/05/31 15:57:07:737',4,0.501677,0.807277,1,0.5,1,1
2696,'2026/05/31 15:57:07:771',4,0.50144,0.80746,1,0.5,1,1
2697,'2026/05/31 15:57:07:804',4,0.50173,0.808047,1,0.5,1,1
2698,'2026/05/31 15:57:07:838',4,0.502015,0.808354,1,0.5,1,1
2699,'2026/05/31 15:57:07:869',4,0.502113,0.807951,1,0.5,1,1
2700,'2026/05/31 15:57:07:902',4,0.502455,0.808217,1,0.5,1,1
2701,'2026/05/31 15:57:07:934',4,0.50253,0.808675,1,0.5,1,1
2702,'2026/05/31 15:57:07:968',4,0.502396,0.808903,1,0.5,1,1
2703,'2026/05/31 15:57:08:001',4,0.502483,0.80888,1,0.5,1,1
2704,'2026/05/31 15:57:08:034',4,0.502218,0.808298,1,0.5,1,1
2705,'2026/05/31 15:57:08:067',4,0.501912,0.807643,1,0.5,1,1
2706,'2026/05/31 15:57:08:101',4,0.500462,0.80702,1,0.5,1,1
2707,'2026/05/31 15:57:08:134',4,0.500158,0.807028,1,0.5,1,1
2708,'2026/05/31 15:57:08:167',4,0.499362,0.807048,1,0.5,1,1
2709,'2026/05/31 15:57:08:200',4,0.499358,0.806893,1,0.5,1,1
2710,'2026/05/31 15:57:08:233',4,0.499119,0.807122,1,0.5,1,1
2711,'2026/05/31 15:57:08:271',4,0.499364,0.806965,1,0.5,1,1
2712,'2026/05/31 15:57:08:304',4,0.499311,0.806742,1,0.5,1,1
2713,'2026/05/31 15:57:08:336',4,0.499551,0.807415,1,0.5,1,1
2714,'2026/05/31 15:57:08:372',4,0.4996,0.807853,1,0.5,1,1
2715,'2026/05/31 15:57:08:402',4,0.499648,0.808748,1,0.5,1,1
2716,'2026/05/31 15:57:08:438',4,0.499409,0.808814,1,0.5,1,1
2717,'2026/05/31 15:57:08:470',4,0.499322,0.808603,1,0.5,1,1
2718,'2026/05/31 15:57:08:502',4,0.498709,0.808812,1,0.5,1,1
2719,'2026/05/31 15:57:08:537',4,0.498459,0.808575,1,0.5,1,1
2720,'2026/05/31 15:57:08:569',4,0.498174,0.808787,1,0.5,1,1
2721,'2026/05/31 15:57:08:603',4,0.49804,0.808914,1,0.5,1,1
2722,'2026/05/31 15:57:08:637',4,0.497721,0.80911,1,0.5,1,1
2723,'2026/05/31 15:57:08:670',4,0.496932,0.809202,1,0.5,1,1
2724,'2026/05/31 15:57:08:706',4,0.496741,0.80867,1,0.5,1,1
2725,'2026/05/31 15:57:08:737',4,0.496216,0.80859,1,0.5,1,1
2726,'2026/05/31 15:57:08:773',4,0.49652,0.808665,1,0.5,1,1
2727,'2026/05/31 15:57:08:803',4,0.496813,0.808705,1,0.5,1,1
2728,'2026/05/31 15:57:08:839',4,0.497178,0.808591,1,0.5,1,1
2729,'2026/05/31 15:57:08:872',4,0.497335,0.808225,1,0.5,1,1
2730,'2026/05/31 15:57:08:904',4,0.49767,0.808456,1,0.5,1,1
2731,'2026/05/31 15:57:08:939',4,0.497849,0.808338,1,0.5,1,1
2732,'2026/05/31 15:57:08:970',4,0.497941,0.808734,1,0.5,1,1
2733,'2026/05/31 15:57:09:006',4,0.498176,0.809077,1,0.5,1,1
2734,'2026/05/31 15:57:09:035',4,0.498173,0.809332,1,0.5,1,1
2735,'2026/05/31 15:57:09:072',4,0.49827,0.809223,1,0.5,1,1
2736,'2026/05/31 15:57:09:105',4,0.498111,0.809397,1,0.5,1,1
2737,'2026/05/31 15:57:09:137',4,0.498283,0.808994,1,0.5,1,1
2738,'2026/05/31 15:57:09:174',4,0.497995,0.808934,1,0.5,1,1
2739,'2026/05/31 15:57:09:203',4,0.498232,0.808865,1,0.5,1,1
2740,'2026/05/31 15:57:09:240',4,0.498148,0.808997,1,0.5,1,1
2741,'2026/05/31 15:57:09:270',4,0.498307,0.809112,1,0.5,1,1
2742,'2026/05/31 15:57:09:306',4,0.498524,0.80967,1,0.5,1,1
2743,'2026/05/31 15:57:09:338',4,0.497981,0.809612,1,0.5,1,1
2744,'2026/05/31 15:57:09:371',4,0.498145,0.809112,1,0.5,1,1
2745,'2026/05/31 15:57:09:407',4,0.498454,0.809266,1,0.5,1,1
2746,'2026/05/31 15:57:09:436',4,0.499038,0.809393,1,0.5,1,1
2747,'2026/05/31 15:57:09:472',4,0.498744,0.808978,1,0.5,1,1
2748,'2026/05/31 15:57:09:505',4,0.498819,0.808728,1,0.5,1,1
2749,'2026/05/31 15:57:09:538',4,0.499094,0.808495,1,0.5,1,1
2750,'2026/05/31 15:57:09:573',4,0.499401,0.808167,1,0.5,1,1
2751,'2026/05/31 15:57:09:604',4,0.499279,0.807508,1,0.5,1,1
2752,'2026/05/31 15:57:09:639',4,0.499588,0.807269,1,0.5,1,1
2753,'2026/05/31 15:57:09:670',4,0.499689,0.807168,1,0.5,1,1
2754,'2026/05/31 15:57:09:705',4,0.49994,0.806416,1,0.5,1,1
2755,'2026/05/31 15:57:09:738',4,0.500018,0.806612,1,0.5,1,1
2756,'2026/05/31 15:57:09:771',4,0.500098,0.806424,1,0.5,1,1
2757,'2026/05/31 15:57:09:805',4,0.499602,0.806464,1,0.5,1,1
2758,'2026/05/31 15:57:09:837',4,0.499667,0.806367,1,0.5,1,1
2759,'2026/05/31 15:57:09:872',4,0.499562,0.806413,1,0.5,1,1
2760,'2026/05/31 15:57:09:904',4,0.499684,0.806897,1,0.5,1,1
2761,'2026/05/31 15:57:09:937',4,0.499606,0.807208,1,0.5,1,1
2762,'2026/05/31 15:57:09:972',4,0.499557,0.807196,1,0.5,1,1
2763,'2026/05/31 15:57:10:004',4,0.499448,0.807186,1,0.5,1,1
2764,'2026/05/31 15:57:10:039',4,0.499479,0.80679,1,0.5,1,1
2765,'2026/05/31 15:57:10:071',4,0.499336,0.806776,1,0.5,1,1
2766,'2026/05/31 15:57:10:106',4,0.499375,0.806906,1,0.5,1,1
2767,'2026/05/31 15:57:10:136',4,0.499357,0.806778,1,0.5,1,1
2768,'2026/05/31 15:57:10:171',4,0.499311,0.806748,1,0.5,1,1
2769,'2026/05/31 15:57:10:204',4,0.499183,0.806943,1,0.5,1,1
2770,'2026/05/31 15:57:10:238',4,0.499128,0.807011,1,0.5,1,1
2771,'2026/05/31 15:57:10:273',4,0.499175,0.807543,1,0.5,1,1
2772,'2026/05/31 15:57:10:303',4,0.49926,0.807482,1,0.5,1,1
2773,'2026/05/31 15:57:10:337',4,0.49905,0.807736,1,0.5,1,1
2774,'2026/05/31 15:57:10:371',4,0.49919,0.808106,1,0.5,1,1
2775,'2026/05/31 15:57:10:405',4,0.499174,0.808219,1,0.5,1,1
2776,'2026/05/31 15:57:10:438',4,0.499331,0.8082,1,0.5,1,1
2777,'2026/05/31 15:57:10:471',4,0.498944,0.808138,1,0.5,1,1
2778,'2026/05/31 15:57:10:507',4,0.499179,0.808557,1,0.5,1,1
2779,'2026/05/31 15:57:10:536',4,0.498937,0.807954,1,0.5,1,1
2780,'2026/05/31 15:57:10:571',4,0.49894,0.807869,1,0.5,1,1
2781,'2026/05/31 15:57:10:604',4,0.498766,0.807783,1,0.5,1,1
2782,'2026/05/31 15:57:10:639',4,0.498797,0.807334,1,0.5,1,1
2783,'2026/05/31 15:57:10:672',4,0.498575,0.806586,1,0.5,1,1
2784,'2026/05/31 15:57:10:704',4,0.498299,0.806191,1,0.5,1,1
2785,'2026/05/31 15:57:10:739',4,0.498351,0.806511,1,0.5,1,1
2786,'2026/05/31 15:57:10:771',4,0.498581,0.806893,1,0.5,1,1
2787,'2026/05/31 15:57:10:805',4,0.498264,0.806898,1,0.5,1,1
2788,'2026/05/31 15:57:10:838',4,0.497978,0.806728,1,0.5,1,1
2789,'2026/05/31 15:57:10:871',4,0.497702,0.806402,1,0.5,1,1
2790,'2026/05/31 15:57:10:906',4,0.497499,0.806546,1,0.5,1,1
2791,'2026/05/31 15:57:10:936',4,0.49722,0.806567,1,0.5,1,1
2792,'2026/05/31 15:57:10:972',4,0.497568,0.807117,1,0.5,1,1
2793,'2026/05/31 15:57:11:004',4,0.497709,0.807665,1,0.5,1,1
2794,'2026/05/31 15:57:11:039',4,0.497854,0.808034,1,0.5,1,1
2795,'2026/05/31 15:57:11:072',4,0.497779,0.807883,1,0.5,1,1
2796,'2026/05/31 15:57:11:103',4,0.497719,0.807516,1,0.5,1,1
2797,'2026/05/31 15:57:11:141',4,0.497926,0.807847,1,0.5,1,1
2798,'2026/05/31 15:57:11:170',4,0.497947,0.807986,1,0.5,1,1
2799,'2026/05/31 15:57:11:205',4,0.49845,0.808124,1,0.5,1,1
2800,'2026/05/31 15:57:11:236',4,0.49843,0.80863,1,0.5,1,1
2801,'2026/05/31 15:57:11:271',4,0.498797,0.80848,1,0.5,1,1
2802,'2026/05/31 15:57:11:305',4,0.499191,0.809022,1,0.5,1,1
2803,'2026/05/31 15:57:11:336',4,0.498983,0.808596,1,0.5,1,1
2804,'2026/05/31 15:57:11:373',4,0.499126,0.807874,1,0.5,1,1
2805,'2026/05/31 15:57:11:403',4,0.498657,0.807323,1,0.5,1,1
2806,'2026/05/31 15:57:11:439',4,0.497853,0.80782,1,0.5,1,1
2807,'2026/05/31 15:57:11:470',4,0.498546,0.808573,1,0.5,1,1
2808,'2026/05/31 15:57:11:505',4,0.49814,0.808685,1,0.5,1,1
2809,'2026/05/31 15:57:11:539',4,0.497895,0.808572,1,0.5,1,1
2810,'2026/05/31 15:57:11:571',4,0.497858,0.808649,1,0.5,1,1
2811,'2026/05/31 15:57:11:607',4,0.498022,0.8089,1,0.5,1,1
2812,'2026/05/31 15:57:11:637',4,0.498252,0.808874,1,0.5,1,1
2813,'2026/05/31 15:57:11:672',4,0.498902,0.809118,1,0.5,1,1
2814,'2026/05/31 15:57:11:705',4,0.499012,0.808965,1,0.5,1,1
2815,'2026/05/31 15:57:11:738',4,0.499446,0.808837,1,0.5,1,1
2816,'2026/05/31 15:57:11:772',4,0.499507,0.808864,1,0.5,1,1
2817,'2026/05/31 15:57:11:804',4,0.499758,0.808867,1,0.5,1,1
2818,'2026/05/31 15:57:11:840',4,0.499666,0.809086,1,0.5,1,1
2819,'2026/05/31 15:57:11:871',4,0.500172,0.808983,1,0.5,1,1
2820,'2026/05/31 15:57:11:906',4,0.500238,0.809187,1,0.5,1,1
2821,'2026/05/31 15:57:11:937',4,0.500046,0.809502,1,0.5,1,1
2822,'2026/05/31 15:57:11:972',4,0.500234,0.809219,1,0.5,1,1
2823,'2026/05/31 15:57:12:005',4,0.500506,0.809355,1,0.5,1,1
2824,'2026/05/31 15:57:12:038',4,0.50117,0.809051,1,0.5,1,1
2825,'2026/05/31 15:57:12:072',4,0.501034,0.8085,1,0.5,1,1
2826,'2026/05/31 15:57:12:104',4,0.501187,0.807636,1,0.5,1,1
2827,'2026/05/31 15:57:12:138',4,0.501156,0.807469,1,0.5,1,1
2828,'2026/05/31 15:57:12:171',4,0.501247,0.807362,1,0.5,1,1
2829,'2026/05/31 15:57:12:205',4,0.501033,0.806764,1,0.5,1,1
2830,'2026/05/31 15:57:12:239',4,0.500255,0.806833,1,0.5,1,1
2831,'2026/05/31 15:57:12:271',4,0.500364,0.806885,1,0.5,1,1
2832,'2026/05/31 15:57:12:306',4,0.500108,0.806717,1,0.5,1,1
2833,'2026/05/31 15:57:12:337',4,0.500172,0.806896,1,0.5,1,1
2834,'2026/05/31 15:57:12:372',4,0.500302,0.80721,1,0.5,1,1
2835,'2026/05/31 15:57:12:405',4,0.500209,0.807095,1,0.5,1,1
2836,'2026/05/31 15:57:12:439',4,0.500307,0.807102,1,0.5,1,1
2837,'2026/05/31 15:57:12:472',4,0.500198,0.807021,1,0.5,1,1
2838,'2026/05/31 15:57:12:505',4,0.500015,0.807018,1,0.5,1,1
2839,'2026/05/31 15:57:12:538',4,0.500242,0.807087,1,0.5,1,1
2840,'2026/05/31 15:57:12:570',4,0.500384,0.807186,1,0.5,1,1
2841,'2026/05/31 15:57:12:605',4,0.500065,0.806759,1,0.5,1,1
2842,'2026/05/31 15:57:12:638',4,0.49999,0.80665,1,0.5,1,1
2843,'2026/05/31 15:57:12:671',4,0.499921,0.806757,1,0.5,1,1
2844,'2026/05/31 15:57:12:707',4,0.499962,0.807145,1,0.5,1,1
2845,'2026/05/31 15:57:12:737',4,0.499953,0.806995,1,0.5,1,1
2846,'2026/05/31 15:57:12:771',4,0.500241,0.807736,1,0.5,1,1
2847,'2026/05/31 15:57:12:804',4,0.50031,0.807885,1,0.5,1,1
2848,'2026/05/31 15:57:12:839',4,0.500654,0.807734,1,0.5,1,1
2849,'2026/05/31 15:57:12:872',4,0.500265,0.807232,1,0.5,1,1
2850,'2026/05/31 15:57:12:905',4,0.499091,0.807441,1,0.5,1,1
2851,'2026/05/31 15:57:12:938',4,0.497166,0.807347,1,0.5,1,1
2852,'2026/05/31 15:57:12:970',4,0.495724,0.806915,1,0.5,1,1
2853,'2026/05/31 15:57:13:006',4,0.495359,0.805955,1,0.5,1,1
2854,'2026/05/31 15:57:13:039',4,0.494707,0.805767,1,0.5,1,1
2855,'2026/05/31 15:57:13:071',4,0.49418,0.80491,1,0.5,1,1
2856,'2026/05/31 15:57:13:107',4,0.493514,0.804856,1,0.5,1,1
2857,'2026/05/31 15:57:13:137',4,0.492612,0.804433,1,0.5,1,1
2858,'2026/05/31 15:57:13:172',4,0.491672,0.80433,1,0.5,1,1
2859,'2026/05/31 15:57:13:203',4,0.491431,0.804815,1,0.5,1,1
2860,'2026/05/31 15:57:13:240',4,0.49039,0.804907,1,0.5,1,1
2861,'2026/05/31 15:57:13:272',4,0.489669,0.805482,1,0.5,1,1
2862,'2026/05/31 15:57:13:305',4,0.48799,0.806206,1,0.5,1,1
2863,'2026/05/31 15:57:13:338',4,0.486505,0.806961,1,0.5,1,1
2864,'2026/05/31 15:57:13:370',4,0.485236,0.807996,1,0.5,1,1
2865,'2026/05/31 15:57:13:405',4,0.48341,0.808999,1,0.5,1,1
2866,'2026/05/31 15:57:13:438',4,0.482268,0.809275,1,0.5,1,1
2867,'2026/05/31 15:57:13:472',4,0.481687,0.810341,1,0.5,1,1
2868,'2026/05/31 15:57:13:505',4,0.48151,0.810633,1,0.5,1,1
2869,'2026/05/31 15:57:13:537',4,0.481796,0.81057,1,0.5,1,1
2870,'2026/05/31 15:57:13:569',4,0.481834,0.811167,1,0.5,1,1
2871,'2026/05/31 15:57:13:601',4,0.48259,0.81127,1,0.5,1,1
2872,'2026/05/31 15:57:13:634',4,0.48316,0.812109,1,0.5,1,1
2873,'2026/05/31 15:57:38:674',5,0.460669,0.520174,0,0.5,0.5,0.05
2874,'2026/05/31 15:57:38:707',5,0.461058,0.518562,0,0.5,0.5,0.05
2875,'2026/05/31 15:57:38:739',5,0.460934,0.515455,0,0.5,0.5,0.05
2876,'2026/05/31 15:57:38:774',5,0.462198,0.521974,0,0.5,0.5,0.05
2877,'2026/05/31 15:57:38:807',5,0.461978,0.520593,0,0.5,0.5,0.05
2878,'2026/05/31 15:57:38:841',5,0.462478,0.515901,0,0.5,0.5,0.05
2879,'2026/05/31 15:57:38:873',5,0.46277,0.516365,0,0.5,0.5,0.05
2880,'2026/05/31 15:57:38:908',5,0.462189,0.517661,0,0.5,0.5,0.05
2881,'2026/05/31 15:57:38:942',5,0.45928,0.513361,0,0.5,0.5,0.05
2882,'2026/05/31 15:57:38:972',5,0.461135,0.508373,0,0.5,0.5,0.05
2883,'2026/05/31 15:57:39:007',5,0.461044,0.509882,0,0.5,0.5,0.05
2884,'2026/05/31 15:57:39:039',5,0.462286,0.509316,0,0.5,0.5,0.05
2885,'2026/05/31 15:57:39:074',5,0.464056,0.506675,0,0.5,0.5,0.05
2886,'2026/05/31 15:57:39:107',5,0.465442,0.508576,0,0.5,0.5,0.05
2887,'2026/05/31 15:57:39:140',5,0.46645,0.511624,0,0.5,0.5,0.05
2888,'2026/05/31 15:57:39:175',5,0.466926,0.509395,0,0.5,0.5,0.05
2889,'2026/05/31 15:57:39:207',5,0.46858,0.507754,0,0.5,0.5,0.05
2890,'2026/05/31 15:57:39:242',5,0.470136,0.513925,0,0.5,0.5,0.05
2891,'2026/05/31 15:57:39:274',5,0.470592,0.512212,0,0.5,0.5,0.05
2892,'2026/05/31 15:57:39:308',5,0.472356,0.510635,0,0.5,0.5,0.05
2893,'2026/05/31 15:57:39:340',5,0.474693,0.514345,0,0.5,0.5,0.05
2894,'2026/05/31 15:57:39:374',5,0.475971,0.516255,0,0.5,0.5,0.05
2895,'2026/05/31 15:57:39:404',5,0.475068,0.512706,0,0.5,0.5,0.05
2896,'2026/05/31 15:57:39:436',5,0.473752,0.51218,0,0.5,0.5,0.05
2897,'2026/05/31 15:57:39:470',5,0.473257,0.514678,0,0.5,0.5,0.05
2898,'2026/05/31 15:57:39:504',5,0.47197,0.51276,0,0.5,0.5,0.05
2899,'2026/05/31 15:57:39:537',5,0.471483,0.511931,0,0.5,0.5,0.05
2900,'2026/05/31 15:57:39:571',5,0.47146,0.51477,0,0.5,0.5,0.05
2901,'2026/05/31 15:57:39:603',5,0.470882,0.516725,0,0.5,0.5,0.05
2902,'2026/05/31 15:57:39:637',5,0.47025,0.513114,0,0.5,0.5,0.05
2903,'2026/05/31 15:57:39:671',5,0.470221,0.516294,0,0.5,0.5,0.05
2904,'2026/05/31 15:57:39:704',5,0.46951,0.520717,0,0.5,0.5,0.05
2905,'2026/05/31 15:57:39:737',5,0.469605,0.520163,0,0.5,0.5,0.05
2906,'2026/05/31 15:57:39:771',5,0.468671,0.521374,0,0.5,0.5,0.05
2907,'2026/05/31 15:57:39:809',5,0.468478,0.521863,0,0.5,0.5,0.05
2908,'2026/05/31 15:57:39:840',5,0.468422,0.521891,0,0.5,0.5,0.05
2909,'2026/05/31 15:57:39:873',5,0.468145,0.519179,0,0.5,0.5,0.05
2910,'2026/05/31 15:57:39:906',5,0.46999,0.518972,0,0.5,0.5,0.05
2911,'2026/05/31 15:57:39:941',5,0.470853,0.519184,0,0.5,0.5,0.05
2912,'2026/05/31 15:57:39:974',5,0.470334,0.517533,0,0.5,0.5,0.05
2913,'2026/05/31 15:57:40:008',5,0.472416,0.518937,0,0.5,0.5,0.05
2914,'2026/05/31 15:57:40:041',5,0.473668,0.522459,0,0.5,0.5,0.05
2915,'2026/05/31 15:57:40:073',5,0.472604,0.52111,0,0.5,0.5,0.05
2916,'2026/05/31 15:57:40:108',5,0.473649,0.520701,0,0.5,0.5,0.05
2917,'2026/05/31 15:57:40:141',5,0.472535,0.525345,0,0.5,0.5,0.05
2918,'2026/05/31 15:57:40:175',5,0.472561,0.525944,0,0.5,0.5,0.05
2919,'2026/05/31 15:57:40:208',5,0.472242,0.52653,0,0.5,0.5,0.05
2920,'2026/05/31 15:57:40:241',5,0.472192,0.525193,0,0.5,0.5,0.05
2921,'2026/05/31 15:57:40:274',5,0.471951,0.527447,0,0.5,0.5,0.05
2922,'2026/05/31 15:57:40:308',5,0.471847,0.526561,0,0.5,0.5,0.05
2923,'2026/05/31 15:57:40:341',5,0.471931,0.528022,0,0.5,0.5,0.05
2924,'2026/05/31 15:57:40:409',5,0.471172,0.534012,0,0.5,0.5,0.05
2925,'2026/05/31 15:57:40:442',5,0.469183,0.530607,0,0.5,0.5,0.05
2926,'2026/05/31 15:57:40:474',5,0.467469,0.532214,0,0.5,0.5,0.05
2927,'2026/05/31 15:57:40:507',5,0.46717,0.535006,0,0.5,0.5,0.05
2928,'2026/05/31 15:57:40:541',5,0.466954,0.534193,0,0.5,0.5,0.05
2929,'2026/05/31 15:57:40:574',5,0.466953,0.536775,0,0.5,0.5,0.05
2930,'2026/05/31 15:57:40:608',5,0.466398,0.536597,0,0.5,0.5,0.05
2931,'2026/05/31 15:57:40:639',5,0.466087,0.537796,0,0.5,0.5,0.05
2932,'2026/05/31 15:57:40:674',5,0.466077,0.541152,0,0.5,0.5,0.05
2933,'2026/05/31 15:57:40:707',5,0.465184,0.542794,0,0.5,0.5,0.05
2934,'2026/05/31 15:57:40:742',5,0.464447,0.543617,0,0.5,0.5,0.05
2935,'2026/05/31 15:57:40:774',5,0.463357,0.542784,0,0.5,0.5,0.05
2936,'2026/05/31 15:57:40:807',5,0.461835,0.543683,0,0.5,0.5,0.05
2937,'2026/05/31 15:57:40:842',5,0.46295,0.544621,0,0.5,0.5,0.05
2938,'2026/05/31 15:57:40:873',5,0.461826,0.545984,0,0.5,0.5,0.05
2939,'2026/05/31 15:57:40:907',5,0.463053,0.545245,0,0.5,0.5,0.05
2940,'2026/05/31 15:57:40:939',5,0.462686,0.548769,0,0.5,0.5,0.05
2941,'2026/05/31 15:57:40:972',5,0.462684,0.547684,0,0.5,0.5,0.05
2942,'2026/05/31 15:57:41:006',5,0.462309,0.547672,0,0.5,0.5,0.05
2943,'2026/05/31 15:57:41:039',5,0.462098,0.548638,0,0.5,0.5,0.05
2944,'2026/05/31 15:57:41:075',5,0.462436,0.54918,0,0.5,0.5,0.05
2945,'2026/05/31 15:57:41:107',5,0.462463,0.550457,0,0.5,0.5,0.05
2946,'2026/05/31 15:57:41:142',5,0.462514,0.550371,0,0.5,0.5,0.05
2947,'2026/05/31 15:57:41:174',5,0.462156,0.55214,0,0.5,0.5,0.05
2948,'2026/05/31 15:57:41:207',5,0.461972,0.552388,0,0.5,0.5,0.05
2949,'2026/05/31 15:57:41:242',5,0.462245,0.550948,0,0.5,0.5,0.05
2950,'2026/05/31 15:57:41:272',5,0.462153,0.550799,0,0.5,0.5,0.05
2951,'2026/05/31 15:57:41:307',5,0.462033,0.550548,0,0.5,0.5,0.05
2952,'2026/05/31 15:57:41:340',5,0.462143,0.551374,0,0.5,0.5,0.05
2953,'2026/05/31 15:57:41:375',5,0.462137,0.550575,0,0.5,0.5,0.05
2954,'2026/05/31 15:57:41:407',5,0.462992,0.551868,0,0.5,0.5,0.05
2955,'2026/05/31 15:57:41:442',5,0.462866,0.552014,0,0.5,0.5,0.05
2956,'2026/05/31 15:57:41:476',5,0.462471,0.550651,0,0.5,0.5,0.05
2957,'2026/05/31 15:57:41:506',5,0.462632,0.552616,0,0.5,0.5,0.05
2958,'2026/05/31 15:57:41:540',5,0.462903,0.552242,0,0.5,0.5,0.05
2959,'2026/05/31 15:57:41:573',5,0.462413,0.553431,0,0.5,0.5,0.05
2960,'2026/05/31 15:57:41:607',5,0.462595,0.552408,0,0.5,0.5,0.05
2961,'2026/05/31 15:57:41:640',5,0.463271,0.553758,0,0.5,0.5,0.05
2962,'2026/05/31 15:57:41:674',5,0.463074,0.553509,0,0.5,0.5,0.05
2963,'2026/05/31 15:57:41:709',5,0.463018,0.553761,0,0.5,0.5,0.05
2964,'2026/05/31 15:57:41:739',5,0.462827,0.55434,0,0.5,0.5,0.05
2965,'2026/05/31 15:57:41:776',5,0.462976,0.5554,0,0.5,0.5,0.05
2966,'2026/05/31 15:57:41:809',5,0.463333,0.555453,0,0.5,0.5,0.05
2967,'2026/05/31 15:57:41:842',5,0.462924,0.55539,0,0.5,0.5,0.05
2968,'2026/05/31 15:57:41:874',5,0.46318,0.556857,0,0.5,0.5,0.05
2969,'2026/05/31 15:57:41:908',5,0.462983,0.556,0,0.5,0.5,0.05
2970,'2026/05/31 15:57:41:942',5,0.462896,0.55527,0,0.5,0.5,0.05
2971,'2026/05/31 15:57:41:973',5,0.46289,0.554873,0,0.5,0.5,0.05
2972,'2026/05/31 15:57:42:009',5,0.463521,0.55453,0,0.5,0.5,0.05
2973,'2026/05/31 15:57:42:037',5,0.463306,0.554017,0,0.5,0.5,0.05
2974,'2026/05/31 15:57:42:071',5,0.463428,0.554028,0,0.5,0.5,0.05
2975,'2026/05/31 15:57:42:109',5,0.463424,0.553967,0,0.5,0.5,0.05
2976,'2026/05/31 15:57:42:140',5,0.463173,0.553529,0,0.5,0.5,0.05
2977,'2026/05/31 15:57:42:176',5,0.463399,0.553994,0,0.5,0.5,0.05
2978,'2026/05/31 15:57:42:207',5,0.463374,0.554941,0,0.5,0.5,0.05
2979,'2026/05/31 15:57:42:240',5,0.463451,0.554688,0,0.5,0.5,0.05
2980,'2026/05/31 15:57:42:273',5,0.463399,0.555151,0,0.5,0.5,0.05
2981,'2026/05/31 15:57:42:309',5,0.463208,0.554429,0,0.5,0.5,0.05
2982,'2026/05/31 15:57:42:340',5,0.46339,0.554368,0,0.5,0.5,0.05
2983,'2026/05/31 15:57:42:374',5,0.463698,0.554517,0,0.5,0.5,0.05
2984,'2026/05/31 15:57:42:405',5,0.463855,0.55481,0,0.5,0.5,0.05
2985,'2026/05/31 15:57:42:439',5,0.4641,0.554515,0,0.5,0.5,0.05
2986,'2026/05/31 15:57:42:472',5,0.464537,0.555686,0,0.5,0.5,0.05
2987,'2026/05/31 15:57:42:507',5,0.464607,0.554896,0,0.5,0.5,0.05
2988,'2026/05/31 15:57:42:541',5,0.465087,0.556672,0,0.5,0.5,0.05
2989,'2026/05/31 15:57:42:574',5,0.465387,0.556438,0,0.5,0.5,0.05
2990,'2026/05/31 15:57:42:606',5,0.465497,0.556643,0,0.5,0.5,0.05
2991,'2026/05/31 15:57:42:641',5,0.465164,0.555862,0,0.5,0.5,0.05
2992,'2026/05/31 15:57:42:674',5,0.465355,0.555665,0,0.5,0.5,0.05
2993,'2026/05/31 15:57:42:707',5,0.465262,0.555655,0,0.5,0.5,0.05
2994,'2026/05/31 15:57:42:741',5,0.465325,0.55578,0,0.5,0.5,0.05
2995,'2026/05/31 15:57:42:774',5,0.465482,0.556144,0,0.5,0.5,0.05
2996,'2026/05/31 15:57:42:808',5,0.465533,0.55657,0,0.5,0.5,0.05
2997,'2026/05/31 15:57:42:839',5,0.465384,0.556649,0,0.5,0.5,0.05
2998,'2026/05/31 15:57:42:873',5,0.465694,0.556613,0,0.5,0.5,0.05
2999,'2026/05/31 15:57:42:908',5,0.465466,0.556353,0,0.5,0.5,0.05
3000,'2026/05/31 15:57:42:941',5,0.465678,0.55664,0,0.5,0.5,0.05
3001,'2026/05/31 15:57:42:975',5,0.46596,0.557747,0,0.5,0.5,0.05
3002,'2026/05/31 15:57:43:006',5,0.465973,0.557013,0,0.5,0.5,0.05
3003,'2026/05/31 15:57:43:042',5,0.466368,0.557544,0,0.5,0.5,0.05
3004,'2026/05/31 15:57:43:073',5,0.466452,0.557338,0,0.5,0.5,0.05
3005,'2026/05/31 15:57:43:107',5,0.466755,0.557399,0,0.5,0.5,0.05
3006,'2026/05/31 15:57:43:141',5,0.466839,0.557191,0,0.5,0.5,0.05
3007,'2026/05/31 15:57:43:173',5,0.467196,0.557731,0,0.5,0.5,0.05
3008,'2026/05/31 15:57:43:206',5,0.467106,0.557513,0,0.5,0.5,0.05
3009,'2026/05/31 15:57:43:240',5,0.467316,0.556507,0,0.5,0.5,0.05
3010,'2026/05/31 15:57:43:273',5,0.467439,0.556822,0,0.5,0.5,0.05
3011,'2026/05/31 15:57:43:307',5,0.467406,0.556709,0,0.5,0.5,0.05
3012,'2026/05/31 15:57:43:341',5,0.467097,0.55668,0,0.5,0.5,0.05
3013,'2026/05/31 15:57:43:375',5,0.467097,0.556931,0,0.5,0.5,0.05
3014,'2026/05/31 15:57:43:408',5,0.466853,0.557438,0,0.5,0.5,0.05
3015,'2026/05/31 15:57:43:442',5,0.467067,0.558507,0,0.5,0.5,0.05
3016,'2026/05/31 15:57:43:473',5,0.466792,0.557089,0,0.5,0.5,0.05
3017,'2026/05/31 15:57:43:509',5,0.467021,0.559339,0,0.5,0.5,0.05
3018,'2026/05/31 15:57:43:540',5,0.467214,0.559254,0,0.5,0.5,0.05
3019,'2026/05/31 15:57:43:576',5,0.467003,0.558736,0,0.5,0.5,0.05
3020,'2026/05/31 15:57:43:608',5,0.467498,0.560491,0,0.5,0.5,0.05
3021,'2026/05/31 15:57:43:642',5,0.467526,0.560461,0,0.5,0.5,0.05
3022,'2026/05/31 15:57:43:675',5,0.467426,0.560107,0,0.5,0.5,0.05
3023,'2026/05/31 15:57:43:707',5,0.467408,0.560527,0,0.5,0.5,0.05
3024,'2026/05/31 15:57:43:740',5,0.467813,0.560857,0,0.5,0.5,0.05
3025,'2026/05/31 15:57:43:774',5,0.467647,0.560715,0,0.5,0.5,0.05
3026,'2026/05/31 15:57:43:808',5,0.467813,0.56131,0,0.5,0.5,0.05
3027,'2026/05/31 15:57:43:842',5,0.468254,0.560674,0,0.5,0.5,0.05
3028,'2026/05/31 15:57:43:874',5,0.468663,0.560364,0,0.5,0.5,0.05
3029,'2026/05/31 15:57:43:909',5,0.468971,0.560773,0,0.5,0.5,0.05
3030,'2026/05/31 15:57:43:940',5,0.469001,0.560943,0,0.5,0.5,0.05
3031,'2026/05/31 15:57:43:975',5,0.469084,0.560781,0,0.5,0.5,0.05
3032,'2026/05/31 15:57:44:008',5,0.469216,0.561948,0,0.5,0.5,0.05
3033,'2026/05/31 15:57:44:042',5,0.469084,0.561336,0,0.5,0.5,0.05
3034,'2026/05/31 15:57:44:076',5,0.469092,0.561233,0,0.5,0.5,0.05
3035,'2026/05/31 15:57:44:106',5,0.468483,0.561789,0,0.5,0.5,0.05
3036,'2026/05/31 15:57:44:142',5,0.468192,0.562319,0,0.5,0.5,0.05
3037,'2026/05/31 15:57:44:175',5,0.46842,0.562495,0,0.5,0.5,0.05
3038,'2026/05/31 15:57:44:208',5,0.468725,0.562894,0,0.5,0.5,0.05
3039,'2026/05/31 15:57:44:241',5,0.469091,0.562187,0,0.5,0.5,0.05
3040,'2026/05/31 15:57:44:275',5,0.468868,0.561536,0,0.5,0.5,0.05
3041,'2026/05/31 15:57:44:309',5,0.468179,0.561677,0,0.5,0.5,0.05
3042,'2026/05/31 15:57:44:340',5,0.468745,0.561954,0,0.5,0.5,0.05
3043,'2026/05/31 15:57:44:375',5,0.468422,0.562927,0,0.5,0.5,0.05
3044,'2026/05/31 15:57:44:408',5,0.468305,0.563377,0,0.5,0.5,0.05
3045,'2026/05/31 15:57:44:443',5,0.468467,0.563864,0,0.5,0.5,0.05
3046,'2026/05/31 15:57:44:474',5,0.4686,0.564289,0,0.5,0.5,0.05
3047,'2026/05/31 15:57:44:508',5,0.468803,0.564686,0,0.5,0.5,0.05
3048,'2026/05/31 15:57:44:541',5,0.46869,0.564033,0,0.5,0.5,0.05
3049,'2026/05/31 15:57:44:574',5,0.468667,0.564603,0,0.5,0.5,0.05
3050,'2026/05/31 15:57:44:608',5,0.468503,0.56444,0,0.5,0.5,0.05
3051,'2026/05/31 15:57:44:641',5,0.468637,0.564132,0,0.5,0.5,0.05
3052,'2026/05/31 15:57:44:675',5,0.468895,0.56334,0,0.5,0.5,0.05
3053,'2026/05/31 15:57:44:708',5,0.469047,0.562742,0,0.5,0.5,0.05
3054,'2026/05/31 15:57:44:742',5,0.469163,0.563143,0,0.5,0.5,0.05
3055,'2026/05/31 15:57:44:775',5,0.468956,0.563339,0,0.5,0.5,0.05
3056,'2026/05/31 15:57:44:807',5,0.468957,0.563436,0,0.5,0.5,0.05
3057,'2026/05/31 15:57:44:840',5,0.468997,0.56346,0,0.5,0.5,0.05
3058,'2026/05/31 15:57:44:873',5,0.469103,0.563661,0,0.5,0.5,0.05
3059,'2026/05/31 15:57:44:907',5,0.469101,0.56329,0,0.5,0.5,0.05
3060,'2026/05/31 15:57:44:942',5,0.469215,0.564141,0,0.5,0.5,0.05
3061,'2026/05/31 15:57:44:975',5,0.469252,0.563791,0,0.5,0.5,0.05
3062,'2026/05/31 15:57:45:010',5,0.469368,0.564774,0,0.5,0.5,0.05
3063,'2026/05/31 15:57:45:041',5,0.469787,0.564613,0,0.5,0.5,0.05
3064,'2026/05/31 15:57:45:075',5,0.470117,0.564943,0,0.5,0.5,0.05
3065,'2026/05/31 15:57:45:107',5,0.469948,0.565407,0,0.5,0.5,0.05
3066,'2026/05/31 15:57:45:143',5,0.470008,0.564951,0,0.5,0.5,0.05
3067,'2026/05/31 15:57:45:175',5,0.470237,0.564901,0,0.5,0.5,0.05
3068,'2026/05/31 15:57:45:207',5,0.470062,0.564133,0,0.5,0.5,0.05
3069,'2026/05/31 15:57:45:243',5,0.46971,0.565145,0,0.5,0.5,0.05
3070,'2026/05/31 15:57:45:274',5,0.46978,0.565866,0,0.5,0.5,0.05
3071,'2026/05/31 15:57:45:308',5,0.469946,0.566964,0,0.5,0.5,0.05
3072,'2026/05/31 15:57:45:342',5,0.469347,0.565384,0,0.5,0.5,0.05
3073,'2026/05/31 15:57:45:375',5,0.469539,0.565104,0,0.5,0.5,0.05
3074,'2026/05/31 15:57:45:409',5,0.46935,0.5664,0,0.5,0.5,0.05
3075,'2026/05/31 15:57:45:439',5,0.470383,0.566538,0,0.5,0.5,0.05
3076,'2026/05/31 15:57:45:477',5,0.469874,0.56642,0,0.5,0.5,0.05
3077,'2026/05/31 15:57:45:508',5,0.469801,0.566423,0,0.5,0.5,0.05
3078,'2026/05/31 15:57:45:542',5,0.470229,0.567154,0,0.5,0.5,0.05
3079,'2026/05/31 15:57:45:574',5,0.469411,0.567276,0,0.5,0.5,0.05
3080,'2026/05/31 15:57:45:609',5,0.469888,0.567273,0,0.5,0.5,0.05
3081,'2026/05/31 15:57:45:642',5,0.470113,0.567866,0,0.5,0.5,0.05
3082,'2026/05/31 15:57:45:674',5,0.470464,0.568638,0,0.5,0.5,0.05
3083,'2026/05/31 15:57:45:709',5,0.469993,0.569005,0,0.5,0.5,0.05
3084,'2026/05/31 15:57:45:741',5,0.470576,0.569013,0,0.5,0.5,0.05
3085,'2026/05/31 15:57:45:775',5,0.471189,0.568654,0,0.5,0.5,0.05
3086,'2026/05/31 15:57:45:808',5,0.470577,0.568451,0,0.5,0.5,0.05
3087,'2026/05/31 15:57:45:839',5,0.469961,0.568782,0,0.5,0.5,0.05
3088,'2026/05/31 15:57:45:872',5,0.469921,0.568585,0,0.5,0.5,0.05
3089,'2026/05/31 15:57:45:905',5,0.469591,0.567957,0,0.5,0.5,0.05
3090,'2026/05/31 15:57:45:936',5,0.470049,0.569747,0,0.5,0.5,0.05
3091,'2026/05/31 15:57:45:969',5,0.468789,0.568118,0,0.5,0.5,0.05
3092,'2026/05/31 15:57:46:005',5,0.469731,0.569783,0,0.5,0.5,0.05
3093,'2026/05/31 15:57:46:041',5,0.468577,0.569311,0,0.5,0.5,0.05
3094,'2026/05/31 15:57:46:071',5,0.469138,0.568543,0,0.5,0.5,0.05
3095,'2026/05/31 15:57:46:104',5,0.46893,0.569005,0,0.5,0.5,0.05
3096,'2026/05/31 15:57:46:137',5,0.468561,0.568264,0,0.5,0.5,0.05
3097,'2026/05/31 15:57:46:172',5,0.469647,0.568049,0,0.5,0.5,0.05
3098,'2026/05/31 15:57:46:206',5,0.470866,0.569718,0,0.5,0.5,0.05
3099,'2026/05/31 15:57:46:243',5,0.471812,0.568958,0,0.5,0.5,0.05
3100,'2026/05/31 15:57:46:276',5,0.472232,0.570676,0,0.5,0.5,0.05
3101,'2026/05/31 15:57:46:307',5,0.472768,0.570876,0,0.5,0.5,0.05
3102,'2026/05/31 15:57:46:343',5,0.471715,0.57145,0,0.5,0.5,0.05
3103,'2026/05/31 15:57:46:374',5,0.471626,0.570949,0,0.5,0.5,0.05
3104,'2026/05/31 15:57:46:409',5,0.471092,0.569415,0,0.5,0.5,0.05
3105,'2026/05/31 15:57:46:441',5,0.47029,0.568684,0,0.5,0.5,0.05
3106,'2026/05/31 15:57:46:475',5,0.469954,0.570091,0,0.5,0.5,0.05
3107,'2026/05/31 15:57:46:509',5,0.469784,0.568779,0,0.5,0.5,0.05
3108,'2026/05/31 15:57:46:541',5,0.469606,0.569279,0,0.5,0.5,0.05
3109,'2026/05/31 15:57:46:572',5,0.469158,0.567541,0,0.5,0.5,0.05
3110,'2026/05/31 15:57:46:606',5,0.469902,0.569959,0,0.5,0.5,0.05
3111,'2026/05/31 15:57:46:638',5,0.468636,0.570079,0,0.5,0.5,0.05
3112,'2026/05/31 15:57:46:672',5,0.468884,0.569082,0,0.5,0.5,0.05
3113,'2026/05/31 15:57:46:709',5,0.468041,0.569119,0,0.5,0.5,0.05
3114,'2026/05/31 15:57:46:742',5,0.468065,0.569122,0,0.5,0.5,0.05
3115,'2026/05/31 15:57:46:774',5,0.467488,0.570159,0,0.5,0.5,0.05
3116,'2026/05/31 15:57:46:810',5,0.46762,0.570109,0,0.5,0.5,0.05
3117,'2026/05/31 15:57:46:841',5,0.467371,0.571723,0,0.5,0.5,0.05
3118,'2026/05/31 15:57:46:875',5,0.466858,0.571321,0,0.5,0.5,0.05
3119,'2026/05/31 15:57:46:909',5,0.467675,0.569807,0,0.5,0.5,0.05
3120,'2026/05/31 15:57:46:941',5,0.467861,0.569482,0,0.5,0.5,0.05
3121,'2026/05/31 15:57:46:975',5,0.467207,0.568748,0,0.5,0.5,0.05
3122,'2026/05/31 15:57:47:008',5,0.467418,0.568544,0,0.5,0.5,0.05
3123,'2026/05/31 15:57:47:042',5,0.467176,0.569621,0,0.5,0.5,0.05
3124,'2026/05/31 15:57:47:075',5,0.467631,0.566995,0,0.5,0.5,0.05
3125,'2026/05/31 15:57:47:103',5,0.468159,0.56774,0,0.5,0.5,0.05
3126,'2026/05/31 15:57:47:142',5,0.468509,0.568067,0,0.5,0.5,0.05
3127,'2026/05/31 15:57:47:174',5,0.468589,0.568087,0,0.5,0.5,0.05
3128,'2026/05/31 15:57:47:209',5,0.468716,0.56839,0,0.5,0.5,0.05
3129,'2026/05/31 15:57:47:242',5,0.468914,0.569718,0,0.5,0.5,0.05
3130,'2026/05/31 15:57:47:275',5,0.468568,0.569214,0,0.5,0.5,0.05
3131,'2026/05/31 15:57:47:310',5,0.468401,0.568948,0,0.5,0.5,0.05
3132,'2026/05/31 15:57:47:340',5,0.468914,0.569096,0,0.5,0.5,0.05
3133,'2026/05/31 15:57:47:376',5,0.468597,0.568658,0,0.5,0.5,0.05
3134,'2026/05/31 15:57:47:407',5,0.468429,0.56985,0,0.5,0.5,0.05
3135,'2026/05/31 15:57:47:442',5,0.46843,0.569304,0,0.5,0.5,0.05
3136,'2026/05/31 15:57:47:474',5,0.468393,0.568982,0,0.5,0.5,0.05
3137,'2026/05/31 15:57:47:508',5,0.46803,0.569198,0,0.5,0.5,0.05
3138,'2026/05/31 15:57:47:542',5,0.468091,0.568654,0,0.5,0.5,0.05
3139,'2026/05/31 15:57:47:574',5,0.468194,0.568603,0,0.5,0.5,0.05
3140,'2026/05/31 15:57:47:609',5,0.468614,0.569226,0,0.5,0.5,0.05
3141,'2026/05/31 15:57:47:641',5,0.469223,0.568798,0,0.5,0.5,0.05
3142,'2026/05/31 15:57:47:675',5,0.46908,0.568869,0,0.5,0.5,0.05
3143,'2026/05/31 15:57:47:705',5,0.46864,0.568857,0,0.5,0.5,0.05
3144,'2026/05/31 15:57:47:739',5,0.468109,0.568487,0,0.5,0.5,0.05
3145,'2026/05/31 15:57:47:772',5,0.467586,0.567905,0,0.5,0.5,0.05
3146,'2026/05/31 15:57:47:804',5,0.467862,0.565825,0,0.5,0.5,0.05
3147,'2026/05/31 15:57:47:838',5,0.467583,0.565717,0,0.5,0.5,0.05
3148,'2026/05/31 15:57:47:870',5,0.46746,0.566461,0,0.5,0.5,0.05
3149,'2026/05/31 15:57:47:903',5,0.468012,0.56491,0,0.5,0.5,0.05
3150,'2026/05/31 15:57:47:939',5,0.467938,0.565811,0,0.5,0.5,0.05
3151,'2026/05/31 15:57:47:971',5,0.468616,0.563807,0,0.5,0.5,0.05
3152,'2026/05/31 15:57:48:005',5,0.468402,0.566463,0,0.5,0.5,0.05
3153,'2026/05/31 15:57:48:038',5,0.468671,0.564802,0,0.5,0.5,0.05
3154,'2026/05/31 15:57:48:071',5,0.469109,0.565517,0,0.5,0.5,0.05
3155,'2026/05/31 15:57:48:105',5,0.469282,0.566626,0,0.5,0.5,0.05
3156,'2026/05/31 15:57:48:138',5,0.469154,0.566571,0,0.5,0.5,0.05
3157,'2026/05/31 15:57:48:172',5,0.468551,0.568377,0,0.5,0.5,0.05
3158,'2026/05/31 15:57:48:204',5,0.46889,0.565945,0,0.5,0.5,0.05
3159,'2026/05/31 15:57:48:238',5,0.468455,0.564651,0,0.5,0.5,0.05
3160,'2026/05/31 15:57:48:272',5,0.468665,0.563767,0,0.5,0.5,0.05
3161,'2026/05/31 15:57:48:305',5,0.469801,0.564346,0,0.5,0.5,0.05
3162,'2026/05/31 15:57:48:338',5,0.470653,0.56339,0,0.5,0.5,0.05
3163,'2026/05/31 15:57:48:372',5,0.471837,0.56591,0,0.5,0.5,0.05
3164,'2026/05/31 15:57:48:405',5,0.472003,0.566865,0,0.5,0.5,0.05
3165,'2026/05/31 15:57:48:437',5,0.472363,0.567645,0,0.5,0.5,0.05
3166,'2026/05/31 15:57:48:471',5,0.472495,0.568314,0,0.5,0.5,0.05
3167,'2026/05/31 15:57:48:505',5,0.472762,0.569222,0,0.5,0.5,0.05
3168,'2026/05/31 15:57:48:538',5,0.472411,0.56995,0,0.5,0.5,0.05
3169,'2026/05/31 15:57:48:572',5,0.472007,0.570145,0,0.5,0.5,0.05
3170,'2026/05/31 15:57:48:605',5,0.472039,0.569671,0,0.5,0.5,0.05
3171,'2026/05/31 15:57:48:639',5,0.470986,0.570265,0,0.5,0.5,0.05
3172,'2026/05/31 15:57:48:672',5,0.469751,0.567269,0,0.5,0.5,0.05
3173,'2026/05/31 15:57:48:705',5,0.469809,0.567112,0,0.5,0.5,0.05
3174,'2026/05/31 15:57:48:742',5,0.469756,0.568167,0,0.5,0.5,0.05
3175,'2026/05/31 15:57:48:777',5,0.469775,0.56743,0,0.5,0.5,0.05
3176,'2026/05/31 15:57:48:809',5,0.469812,0.567648,0,0.5,0.5,0.05
3177,'2026/05/31 15:57:48:841',5,0.469685,0.567027,0,0.5,0.5,0.05
3178,'2026/05/31 15:57:48:876',5,0.469879,0.567773,0,0.5,0.5,0.05
3179,'2026/05/31 15:57:48:908',5,0.46999,0.567016,0,0.5,0.5,0.05
3180,'2026/05/31 15:57:48:943',5,0.469911,0.568249,0,0.5,0.5,0.05
3181,'2026/05/31 15:57:48:974',5,0.469821,0.56515,0,0.5,0.5,0.05
3182,'2026/05/31 15:57:49:009',5,0.469581,0.566385,0,0.5,0.5,0.05
3183,'2026/05/31 15:57:49:044',5,0.469207,0.565121,0,0.5,0.5,0.05
3184,'2026/05/31 15:57:49:074',5,0.467777,0.563391,0,0.5,0.5,0.05
3185,'2026/05/31 15:57:49:109',5,0.466965,0.562435,0,0.5,0.5,0.05
3186,'2026/05/31 15:57:49:141',5,0.466204,0.561866,0,0.5,0.5,0.05
3187,'2026/05/31 15:57:49:176',5,0.465524,0.56163,0,0.5,0.5,0.05
3188,'2026/05/31 15:57:49:209',5,0.465326,0.561881,0,0.5,0.5,0.05
3189,'2026/05/31 15:57:49:242',5,0.464866,0.561301,0,0.5,0.5,0.05
3190,'2026/05/31 15:57:49:275',5,0.46532,0.560982,0,0.5,0.5,0.05
3191,'2026/05/31 15:57:49:308',5,0.465055,0.561722,0,0.5,0.5,0.05
3192,'2026/05/31 15:57:49:343',5,0.464912,0.561905,0,0.5,0.5,0.05
3193,'2026/05/31 15:57:49:374',5,0.465237,0.562138,0,0.5,0.5,0.05
3194,'2026/05/31 15:57:49:410',5,0.465093,0.562539,0,0.5,0.5,0.05
3195,'2026/05/31 15:57:49:442',5,0.465114,0.562085,0,0.5,0.5,0.05
3196,'2026/05/31 15:57:49:475',5,0.464258,0.560878,0,0.5,0.5,0.05
3197,'2026/05/31 15:57:49:510',5,0.465405,0.561169,0,0.5,0.5,0.05
3198,'2026/05/31 15:57:49:541',5,0.46562,0.560519,0,0.5,0.5,0.05
3199,'2026/05/31 15:57:49:575',5,0.465097,0.558302,0,0.5,0.5,0.05
3200,'2026/05/31 15:57:49:608',5,0.465648,0.557703,0,0.5,0.5,0.05
3201,'2026/05/31 15:57:49:643',5,0.465663,0.557564,0,0.5,0.5,0.05
3202,'2026/05/31 15:57:49:676',5,0.466431,0.557488,0,0.5,0.5,0.05
3203,'2026/05/31 15:57:49:708',5,0.466099,0.557738,0,0.5,0.5,0.05
3204,'2026/05/31 15:57:49:743',5,0.465407,0.556335,0,0.5,0.5,0.05
3205,'2026/05/31 15:57:49:772',5,0.466152,0.555972,0,0.5,0.5,0.05
3206,'2026/05/31 15:57:49:809',5,0.46693,0.558789,0,0.5,0.5,0.05
3207,'2026/05/31 15:57:49:841',5,0.465815,0.557287,0,0.5,0.5,0.05
3208,'2026/05/31 15:57:49:871',5,0.466236,0.556654,0,0.5,0.5,0.05
3209,'2026/05/31 15:57:49:905',5,0.467016,0.558002,0,0.5,0.5,0.05
3210,'2026/05/31 15:57:49:937',5,0.465845,0.556163,0,0.5,0.5,0.05
3211,'2026/05/31 15:57:49:972',5,0.465751,0.555392,0,0.5,0.5,0.05
3212,'2026/05/31 15:57:50:005',5,0.465952,0.554604,0,0.5,0.5,0.05
3213,'2026/05/31 15:57:50:038',5,0.465942,0.55349,0,0.5,0.5,0.05
3214,'2026/05/31 15:57:50:072',5,0.465982,0.552868,0,0.5,0.5,0.05
3215,'2026/05/31 15:57:50:105',5,0.466349,0.55331,0,0.5,0.5,0.05
3216,'2026/05/31 15:57:50:138',5,0.466238,0.552857,0,0.5,0.5,0.05
3217,'2026/05/31 15:57:50:171',5,0.466148,0.5527,0,0.5,0.5,0.05
3218,'2026/05/31 15:57:50:204',5,0.466375,0.553394,0,0.5,0.5,0.05
3219,'2026/05/31 15:57:50:238',5,0.466562,0.552695,0,0.5,0.5,0.05
3220,'2026/05/31 15:57:50:274',5,0.466666,0.552322,0,0.5,0.5,0.05
3221,'2026/05/31 15:57:50:309',5,0.466525,0.551824,0,0.5,0.5,0.05
3222,'2026/05/31 15:57:50:340',5,0.466788,0.551168,0,0.5,0.5,0.05
3223,'2026/05/31 15:57:50:375',5,0.467009,0.5504,0,0.5,0.5,0.05
3224,'2026/05/31 15:57:50:408',5,0.467306,0.549576,0,0.5,0.5,0.05
3225,'2026/05/31 15:57:50:442',5,0.467558,0.548627,0,0.5,0.5,0.05
3226,'2026/05/31 15:57:50:474',5,0.467249,0.547572,0,0.5,0.5,0.05
3227,'2026/05/31 15:57:50:507',5,0.466526,0.54723,0,0.5,0.5,0.05
3228,'2026/05/31 15:57:50:543',5,0.466393,0.545689,0,0.5,0.5,0.05
3229,'2026/05/31 15:57:50:576',5,0.466361,0.544641,0,0.5,0.5,0.05
3230,'2026/05/31 15:57:50:609',5,0.465702,0.54363,0,0.5,0.5,0.05
3231,'2026/05/31 15:57:50:640',5,0.465711,0.544357,0,0.5,0.5,0.05
3232,'2026/05/31 15:57:50:672',5,0.465322,0.542011,0,0.5,0.5,0.05
3233,'2026/05/31 15:57:50:708',5,0.466274,0.542732,0,0.5,0.5,0.05
3234,'2026/05/31 15:57:50:743',5,0.46592,0.541753,0,0.5,0.5,0.05
3235,'2026/05/31 15:57:50:775',5,0.466575,0.541753,0,0.5,0.5,0.05
3236,'2026/05/31 15:57:50:808',5,0.466693,0.54203,0,0.5,0.5,0.05
3237,'2026/05/31 15:57:50:841',5,0.466087,0.539834,0,0.5,0.5,0.05
3238,'2026/05/31 15:57:50:876',5,0.466405,0.539742,0,0.5,0.5,0.05
3239,'2026/05/31 15:57:50:907',5,0.466141,0.540079,0,0.5,0.5,0.05
3240,'2026/05/31 15:57:50:943',5,0.466088,0.539545,0,0.5,0.5,0.05
3241,'2026/05/31 15:57:50:974',5,0.464857,0.53757,0,0.5,0.5,0.05
3242,'2026/05/31 15:57:51:006',5,0.46504,0.537264,0,0.5,0.5,0.05
3243,'2026/05/31 15:57:51:042',5,0.464942,0.536422,0,0.5,0.5,0.05
3244,'2026/05/31 15:57:51:075',5,0.464468,0.535713,0,0.5,0.5,0.05
3245,'2026/05/31 15:57:51:110',5,0.464768,0.534136,0,0.5,0.5,0.05
3246,'2026/05/31 15:57:51:140',5,0.465778,0.53602,0,0.5,0.5,0.05
3247,'2026/05/31 15:57:51:176',5,0.464937,0.534561,0,0.5,0.5,0.05
3248,'2026/05/31 15:57:51:207',5,0.464694,0.533321,0,0.5,0.5,0.05
3249,'2026/05/31 15:57:51:238',5,0.465493,0.533725,0,0.5,0.5,0.05
3250,'2026/05/31 15:57:51:273',5,0.466452,0.536421,0,0.5,0.5,0.05
3251,'2026/05/31 15:57:51:306',5,0.46537,0.534731,0,0.5,0.5,0.05
3252,'2026/05/31 15:57:51:341',5,0.465448,0.532992,0,0.5,0.5,0.05
3253,'2026/05/31 15:57:51:374',5,0.466205,0.533985,0,0.5,0.5,0.05
3254,'2026/05/31 15:57:51:409',5,0.466585,0.53426,0,0.5,0.5,0.05
3255,'2026/05/31 15:57:51:441',5,0.466142,0.532894,0,0.5,0.5,0.05
3256,'2026/05/31 15:57:51:476',5,0.467028,0.531115,0,0.5,0.5,0.05
3257,'2026/05/31 15:57:51:509',5,0.468093,0.532614,0,0.5,0.5,0.05
3258,'2026/05/31 15:57:51:541',5,0.467849,0.530867,0,0.5,0.5,0.05
3259,'2026/05/31 15:57:51:576',5,0.467778,0.532501,0,0.5,0.5,0.05
3260,'2026/05/31 15:57:51:608',5,0.467749,0.531592,0,0.5,0.5,0.05
3261,'2026/05/31 15:57:51:643',5,0.467813,0.53265,0,0.5,0.5,0.05
3262,'2026/05/31 15:57:51:674',5,0.46742,0.533528,0,0.5,0.5,0.05
3263,'2026/05/31 15:57:51:710',5,0.467934,0.532007,0,0.5,0.5,0.05
3264,'2026/05/31 15:57:51:742',5,0.467822,0.533967,0,0.5,0.5,0.05
3265,'2026/05/31 15:57:51:775',5,0.467841,0.532963,0,0.5,0.5,0.05
3266,'2026/05/31 15:57:51:810',5,0.46766,0.533827,0,0.5,0.5,0.05
3267,'2026/05/31 15:57:51:841',5,0.468323,0.533226,0,0.5,0.5,0.05
3268,'2026/05/31 15:57:51:876',5,0.46903,0.534597,0,0.5,0.5,0.05
3269,'2026/05/31 15:57:51:907',5,0.468955,0.534846,0,0.5,0.5,0.05
3270,'2026/05/31 15:57:51:943',5,0.468945,0.534691,0,0.5,0.5,0.05
3271,'2026/05/31 15:57:51:976',5,0.468997,0.532071,0,0.5,0.5,0.05
3272,'2026/05/31 15:57:52:007',5,0.469322,0.532747,0,0.5,0.5,0.05
3273,'2026/05/31 15:57:52:043',5,0.469671,0.534107,0,0.5,0.5,0.05
3274,'2026/05/31 15:57:52:074',5,0.470249,0.532526,0,0.5,0.5,0.05
3275,'2026/05/31 15:57:52:109',5,0.471207,0.534016,0,0.5,0.5,0.05
3276,'2026/05/31 15:57:52:143',5,0.470904,0.533241,0,0.5,0.5,0.05
3277,'2026/05/31 15:57:52:176',5,0.470794,0.533864,0,0.5,0.5,0.05
3278,'2026/05/31 15:57:52:210',5,0.470731,0.534578,0,0.5,0.5,0.05
3279,'2026/05/31 15:57:52:241',5,0.471183,0.534158,0,0.5,0.5,0.05
3280,'2026/05/31 15:57:52:277',5,0.472065,0.534633,0,0.5,0.5,0.05
3281,'2026/05/31 15:57:52:308',5,0.473051,0.535506,0,0.5,0.5,0.05
3282,'2026/05/31 15:57:52:341',5,0.473739,0.534399,0,0.5,0.5,0.05
3283,'2026/05/31 15:57:52:375',5,0.47437,0.53573,0,0.5,0.5,0.05
3284,'2026/05/31 15:57:52:407',5,0.475676,0.53518,0,0.5,0.5,0.05
3285,'2026/05/31 15:57:52:443',5,0.476611,0.534153,0,0.5,0.5,0.05
3286,'2026/05/31 15:57:52:474',5,0.476896,0.533913,0,0.5,0.5,0.05
3287,'2026/05/31 15:57:52:508',5,0.477905,0.533905,0,0.5,0.5,0.05
3288,'2026/05/31 15:57:52:541',5,0.478191,0.534333,0,0.5,0.5,0.05
3289,'2026/05/31 15:57:52:572',5,0.478606,0.533845,0,0.5,0.5,0.05
3290,'2026/05/31 15:57:52:606',5,0.479091,0.534459,0,0.5,0.5,0.05
3291,'2026/05/31 15:57:52:638',5,0.479958,0.533753,0,0.5,0.5,0.05
3292,'2026/05/31 15:57:52:677',5,0.480359,0.533896,0,0.5,0.5,0.05
3293,'2026/05/31 15:57:52:707',5,0.480956,0.532264,0,0.5,0.5,0.05
3294,'2026/05/31 15:57:52:743',5,0.481468,0.531805,0,0.5,0.5,0.05
3295,'2026/05/31 15:57:52:774',5,0.482082,0.530855,0,0.5,0.5,0.05
3296,'2026/05/31 15:57:52:810',5,0.483221,0.53009,0,0.5,0.5,0.05
3297,'2026/05/31 15:57:52:842',5,0.484618,0.527836,0,0.5,0.5,0.05
3298,'2026/05/31 15:57:52:872',5,0.485599,0.527873,0,0.5,0.5,0.05
3299,'2026/05/31 15:57:52:907',5,0.486378,0.528537,0,0.5,0.5,0.05
3300,'2026/05/31 15:57:52:940',5,0.486808,0.528323,0,0.5,0.5,0.05
3301,'2026/05/31 15:57:52:976',5,0.487424,0.527864,0,0.5,0.5,0.05
3302,'2026/05/31 15:57:53:008',5,0.48802,0.52743,0,0.5,0.5,0.05
3303,'2026/05/31 15:57:53:041',5,0.488588,0.5263,0,0.5,0.5,0.05
3304,'2026/05/31 15:57:53:075',5,0.488506,0.526457,0,0.5,0.5,0.05
3305,'2026/05/31 15:57:53:108',5,0.488762,0.525973,0,0.5,0.5,0.05
3306,'2026/05/31 15:57:53:141',5,0.489423,0.525861,0,0.5,0.5,0.05
3307,'2026/05/31 15:57:53:174',5,0.489764,0.52514,0,0.5,0.5,0.05
3308,'2026/05/31 15:57:53:208',5,0.489973,0.524496,0,0.5,0.5,0.05
3309,'2026/05/31 15:57:53:241',5,0.489431,0.522829,0,0.5,0.5,0.05
3310,'2026/05/31 15:57:53:272',5,0.489558,0.522784,0,0.5,0.5,0.05
3311,'2026/05/31 15:57:53:308',5,0.489674,0.521902,0,0.5,0.5,0.05
3312,'2026/05/31 15:57:53:340',5,0.489717,0.521538,0,0.5,0.5,0.05
3313,'2026/05/31 15:57:53:375',5,0.489679,0.520799,0,0.5,0.5,0.05
3314,'2026/05/31 15:57:53:408',5,0.489783,0.520239,0,0.5,0.5,0.05
3315,'2026/05/31 15:57:53:442',5,0.490031,0.519894,0,0.5,0.5,0.05
3316,'2026/05/31 15:57:53:475',5,0.490585,0.51906,0,0.5,0.5,0.05
3317,'2026/05/31 15:57:53:509',5,0.491247,0.518545,0,0.5,0.5,0.05
3318,'2026/05/31 15:57:53:543',5,0.491512,0.518829,0,0.5,0.5,0.05
3319,'2026/05/31 15:57:53:574',5,0.491787,0.518575,0,0.5,0.5,0.05
3320,'2026/05/31 15:57:53:609',5,0.492209,0.518425,0,0.5,0.5,0.05
3321,'2026/05/31 15:57:53:642',5,0.492236,0.518386,0,0.5,0.5,0.05
3322,'2026/05/31 15:57:53:676',5,0.492712,0.518088,0,0.5,0.5,0.05
3323,'2026/05/31 15:57:53:710',5,0.492992,0.518711,0,0.5,0.5,0.05
3324,'2026/05/31 15:57:53:742',5,0.493199,0.518524,0,0.5,0.5,0.05
3325,'2026/05/31 15:57:53:776',5,0.493439,0.517541,0,0.5,0.5,0.05
3326,'2026/05/31 15:57:53:808',5,0.493567,0.516694,0,0.5,0.5,0.05
3327,'2026/05/31 15:57:53:841',5,0.493838,0.516531,0,0.5,0.5,0.05
3328,'2026/05/31 15:57:53:876',5,0.494513,0.51518,0,0.5,0.5,0.05
3329,'2026/05/31 15:57:53:905',5,0.495619,0.515208,0,0.5,0.5,0.05
3330,'2026/05/31 15:57:53:945',5,0.49581,0.513054,0,0.5,0.5,0.05
3331,'2026/05/31 15:57:53:974',5,0.496645,0.513002,0,0.5,0.5,0.05
3332,'2026/05/31 15:57:54:010',5,0.497494,0.513223,0,0.5,0.5,0.05
3333,'2026/05/31 15:57:54:040',5,0.497607,0.513121,0,0.5,0.5,0.05
3334,'2026/05/31 15:57:54:075',5,0.497903,0.513764,0,0.5,0.5,0.05
3335,'2026/05/31 15:57:54:109',5,0.498499,0.513502,0,0.5,0.5,0.05
3336,'2026/05/31 15:57:54:142',5,0.498792,0.513393,0,0.5,0.5,0.05
3337,'2026/05/31 15:57:54:177',5,0.499489,0.512493,0,0.5,0.5,0.05
3338,'2026/05/31 15:57:54:208',5,0.49985,0.512908,0,0.5,0.5,0.05
3339,'2026/05/31 15:57:54:243',5,0.499765,0.512664,0,0.5,0.5,0.05
3340,'2026/05/31 15:57:54:275',5,0.5005,0.512219,0,0.5,0.5,0.05
3341,'2026/05/31 15:57:54:309',5,0.501439,0.512902,0,0.5,0.5,0.05
3342,'2026/05/31 15:57:54:343',5,0.5018,0.5121,0,0.5,0.5,0.05
3343,'2026/05/31 15:57:54:375',5,0.502013,0.513062,0,0.5,0.5,0.05
3344,'2026/05/31 15:57:54:411',5,0.501406,0.513023,0,0.5,0.5,0.05
3345,'2026/05/31 15:57:54:442',5,0.502153,0.513104,0,0.5,0.5,0.05
3346,'2026/05/31 15:57:54:476',5,0.502566,0.513061,0,0.5,0.5,0.05
3347,'2026/05/31 15:57:54:509',5,0.502543,0.512644,0,0.5,0.5,0.05
3348,'2026/05/31 15:57:54:543',5,0.50246,0.512821,0,0.5,0.5,0.05
3349,'2026/05/31 15:57:54:576',5,0.502554,0.512576,0,0.5,0.5,0.05
3350,'2026/05/31 15:57:54:609',5,0.503341,0.512147,0,0.5,0.5,0.05
3351,'2026/05/31 15:57:54:643',5,0.503406,0.512771,0,0.5,0.5,0.05
3352,'2026/05/31 15:57:54:675',5,0.503754,0.513041,0,0.5,0.5,0.05
3353,'2026/05/31 15:57:54:709',5,0.503398,0.512112,0,0.5,0.5,0.05
3354,'2026/05/31 15:57:54:743',5,0.503697,0.513104,0,0.5,0.5,0.05
3355,'2026/05/31 15:57:54:775',5,0.503625,0.512119,0,0.5,0.5,0.05
3356,'2026/05/31 15:57:54:810',5,0.503785,0.512341,0,0.5,0.5,0.05
3357,'2026/05/31 15:57:54:841',5,0.504157,0.511829,0,0.5,0.5,0.05
3358,'2026/05/31 15:57:54:877',5,0.50444,0.511191,0,0.5,0.5,0.05
3359,'2026/05/31 15:57:54:907',5,0.504239,0.512241,0,0.5,0.5,0.05
3360,'2026/05/31 15:57:54:942',5,0.504727,0.51111,0,0.5,0.5,0.05
3361,'2026/05/31 15:57:54:976',5,0.504245,0.508837,0,0.5,0.5,0.05
3362,'2026/05/31 15:57:55:008',5,0.504569,0.508979,0,0.5,0.5,0.05
3363,'2026/05/31 15:57:55:044',5,0.50509,0.508196,0,0.5,0.5,0.05
3364,'2026/05/31 15:57:55:075',5,0.505121,0.507362,0,0.5,0.5,0.05
3365,'2026/05/31 15:57:55:110',5,0.505134,0.507481,0,0.5,0.5,0.05
3366,'2026/05/31 15:57:55:141',5,0.505209,0.508131,0,0.5,0.5,0.05
3367,'2026/05/31 15:57:55:175',5,0.505013,0.508561,0,0.5,0.5,0.05
3368,'2026/05/31 15:57:55:210',5,0.505019,0.507514,0,0.5,0.5,0.05
3369,'2026/05/31 15:57:55:242',5,0.505164,0.50779,0,0.5,0.5,0.05
3370,'2026/05/31 15:57:55:280',5,0.505175,0.507861,0,0.5,0.5,0.05
3371,'2026/05/31 15:57:55:347',5,0.505956,0.50717,0,0.5,0.5,0.05
3372,'2026/05/31 15:57:55:377',5,0.506248,0.507068,0,0.5,0.5,0.05
3373,'2026/05/31 15:57:55:409',5,0.506295,0.506046,0,0.5,0.5,0.05
3374,'2026/05/31 15:57:55:444',5,0.506514,0.505481,0,0.5,0.5,0.05
3375,'2026/05/31 15:57:55:476',5,0.506282,0.504322,0,0.5,0.5,0.05
3376,'2026/05/31 15:57:55:510',5,0.50655,0.504491,0,0.5,0.5,0.05
3377,'2026/05/31 15:57:55:541',5,0.505996,0.502205,0,0.5,0.5,0.05
3378,'2026/05/31 15:57:55:576',5,0.506204,0.502305,0,0.5,0.5,0.05
3379,'2026/05/31 15:57:55:610',5,0.506034,0.501569,0,0.5,0.5,0.05
3380,'2026/05/31 15:57:55:642',5,0.506267,0.50112,0,0.5,0.5,0.05
3381,'2026/05/31 15:57:55:677',5,0.50606,0.500471,0,0.5,0.5,0.05
3382,'2026/05/31 15:57:55:708',5,0.506369,0.500743,0,0.5,0.5,0.05
3383,'2026/05/31 15:57:55:742',5,0.506217,0.500568,0,0.5,0.5,0.05
3384,'2026/05/31 15:57:55:774',5,0.506657,0.501041,0,0.5,0.5,0.05
3385,'2026/05/31 15:57:55:808',5,0.506458,0.500806,0,0.5,0.5,0.05
3386,'2026/05/31 15:57:55:838',5,0.507108,0.501479,0,0.5,0.5,0.05
3387,'2026/05/31 15:57:55:874',5,0.507047,0.501927,0,0.5,0.5,0.05
3388,'2026/05/31 15:57:55:907',5,0.507216,0.500896,0,0.5,0.5,0.05
3389,'2026/05/31 15:57:55:938',5,0.507163,0.501346,0,0.5,0.5,0.05
3390,'2026/05/31 15:57:55:972',5,0.506971,0.502056,0,0.5,0.5,0.05
3391,'2026/05/31 15:57:56:007',5,0.507266,0.502007,0,0.5,0.5,0.05
3392,'2026/05/31 15:57:56:038',5,0.507548,0.501645,0,0.5,0.5,0.05
3393,'2026/05/31 15:57:56:075',5,0.507111,0.501751,0,0.5,0.5,0.05
3394,'2026/05/31 15:57:56:106',5,0.507461,0.502759,0,0.5,0.5,0.05
3395,'2026/05/31 15:57:56:141',5,0.507362,0.502362,0,0.5,0.5,0.05
3396,'2026/05/31 15:57:56:173',5,0.507332,0.50218,0,0.5,0.5,0.05
3397,'2026/05/31 15:57:56:205',5,0.507405,0.501722,0,0.5,0.5,0.05
3398,'2026/05/31 15:57:56:239',5,0.507242,0.501979,0,0.5,0.5,0.05
3399,'2026/05/31 15:57:56:274',5,0.507062,0.500286,0,0.5,0.5,0.05
3400,'2026/05/31 15:57:56:309',5,0.5071,0.500189,0,0.5,0.5,0.05
3401,'2026/05/31 15:57:56:342',5,0.507755,0.499911,0,0.5,0.5,0.05
3402,'2026/05/31 15:57:56:377',5,0.507557,0.498961,0,0.5,0.5,0.05
3403,'2026/05/31 15:57:56:410',5,0.507466,0.499508,0,0.5,0.5,0.05
3404,'2026/05/31 15:57:56:442',5,0.508082,0.500338,0,0.5,0.5,0.05
3405,'2026/05/31 15:57:56:477',5,0.508549,0.500022,0,0.5,0.5,0.05
3406,'2026/05/31 15:57:56:509',5,0.508679,0.500771,0,0.5,0.5,0.05
3407,'2026/05/31 15:57:56:543',5,0.509077,0.501957,0,0.5,0.5,0.05
3408,'2026/05/31 15:57:56:572',5,0.50841,0.50161,0,0.5,0.5,0.05
3409,'2026/05/31 15:57:56:604',5,0.508252,0.501541,0,0.5,0.5,0.05
3410,'2026/05/31 15:57:56:638',5,0.507851,0.50126,0,0.5,0.5,0.05
3411,'2026/05/31 15:57:56:677',5,0.507468,0.499837,0,0.5,0.5,0.05
3412,'2026/05/31 15:57:56:711',5,0.507417,0.499598,0,0.5,0.5,0.05
3413,'2026/05/31 15:57:56:742',5,0.507367,0.499444,0,0.5,0.5,0.05
3414,'2026/05/31 15:57:56:777',5,0.507754,0.500707,0,0.5,0.5,0.05
3415,'2026/05/31 15:57:56:809',5,0.507785,0.501368,0,0.5,0.5,0.05
3416,'2026/05/31 15:57:56:843',5,0.508041,0.501259,0,0.5,0.5,0.05
3417,'2026/05/31 15:57:56:879',5,0.50863,0.502053,0,0.5,0.5,0.05
3418,'2026/05/31 15:57:56:908',5,0.509021,0.502974,0,0.5,0.5,0.05
3419,'2026/05/31 15:57:56:944',5,0.509198,0.502164,0,0.5,0.5,0.05
3420,'2026/05/31 15:57:56:975',5,0.509359,0.502421,0,0.5,0.5,0.05
3421,'2026/05/31 15:57:57:008',5,0.509185,0.502052,0,0.5,0.5,0.05
3422,'2026/05/31 15:57:57:043',5,0.509352,0.502158,0,0.5,0.5,0.05
3423,'2026/05/31 15:57:57:075',5,0.509389,0.501832,0,0.5,0.5,0.05
3424,'2026/05/31 15:57:57:110',5,0.509516,0.501533,0,0.5,0.5,0.05
3425,'2026/05/31 15:57:57:142',5,0.509314,0.500559,0,0.5,0.5,0.05
3426,'2026/05/31 15:57:57:176',5,0.509444,0.500562,0,0.5,0.5,0.05
3427,'2026/05/31 15:57:57:209',5,0.509892,0.501536,0,0.5,0.5,0.05
3428,'2026/05/31 15:57:57:242',5,0.510998,0.50303,0,0.5,0.5,0.05
3429,'2026/05/31 15:57:57:276',5,0.511527,0.504075,0,0.5,0.5,0.05
3430,'2026/05/31 15:57:57:308',5,0.511408,0.503383,0,0.5,0.5,0.05
3431,'2026/05/31 15:57:57:342',5,0.511728,0.503906,0,0.5,0.5,0.05
3432,'2026/05/31 15:57:57:377',5,0.511788,0.503417,0,0.5,0.5,0.05
3433,'2026/05/31 15:57:57:409',5,0.511705,0.502869,0,0.5,0.5,0.05
3434,'2026/05/31 15:57:57:442',5,0.511599,0.503075,0,0.5,0.5,0.05
3435,'2026/05/31 15:57:57:476',5,0.511862,0.503115,0,0.5,0.5,0.05
3436,'2026/05/31 15:57:57:510',5,0.511777,0.502611,0,0.5,0.5,0.05
3437,'2026/05/31 15:57:57:542',5,0.511279,0.502077,0,0.5,0.5,0.05
3438,'2026/05/31 15:57:57:577',5,0.511687,0.502085,0,0.5,0.5,0.05
3439,'2026/05/31 15:57:57:608',5,0.511303,0.502146,0,0.5,0.5,0.05
3440,'2026/05/31 15:57:57:644',5,0.5118,0.50229,0,0.5,0.5,0.05
3441,'2026/05/31 15:57:57:675',5,0.511576,0.50242,0,0.5,0.5,0.05
3442,'2026/05/31 15:57:57:710',5,0.511898,0.501713,0,0.5,0.5,0.05
3443,'2026/05/31 15:57:57:742',5,0.511304,0.501709,0,0.5,0.5,0.05
3444,'2026/05/31 15:57:57:777',5,0.511,0.502315,0,0.5,0.5,0.05
3445,'2026/05/31 15:57:57:808',5,0.511219,0.502722,0,0.5,0.5,0.05
3446,'2026/05/31 15:57:57:841',5,0.511443,0.502954,0,0.5,0.5,0.05
3447,'2026/05/31 15:57:57:875',5,0.511458,0.503153,0,0.5,0.5,0.05
3448,'2026/05/31 15:57:57:909',5,0.511767,0.503103,0,0.5,0.5,0.05
3449,'2026/05/31 15:57:57:943',5,0.511548,0.503344,0,0.5,0.5,0.05
3450,'2026/05/31 15:57:57:977',5,0.511577,0.503411,0,0.5,0.5,0.05
3451,'2026/05/31 15:57:58:008',5,0.511774,0.503268,0,0.5,0.5,0.05
3452,'2026/05/31 15:57:58:042',5,0.512041,0.502337,0,0.5,0.5,0.05
3453,'2026/05/31 15:57:58:072',5,0.51225,0.502585,0,0.5,0.5,0.05
3454,'2026/05/31 15:57:58:106',5,0.512231,0.502057,0,0.5,0.5,0.05
3455,'2026/05/31 15:57:58:139',5,0.512299,0.502283,0,0.5,0.5,0.05
3456,'2026/05/31 15:57:58:173',5,0.512099,0.501476,0,0.5,0.5,0.05
3457,'2026/05/31 15:57:58:206',5,0.512022,0.501395,0,0.5,0.5,0.05
3458,'2026/05/31 15:57:58:238',5,0.512288,0.500298,0,0.5,0.5,0.05
3459,'2026/05/31 15:57:58:271',5,0.512116,0.500545,0,0.5,0.5,0.05
3460,'2026/05/31 15:57:58:307',5,0.512366,0.500463,0,0.5,0.5,0.05
3461,'2026/05/31 15:57:58:339',5,0.512092,0.500717,0,0.5,0.5,0.05
3462,'2026/05/31 15:57:58:373',5,0.512157,0.500952,0,0.5,0.5,0.05
3463,'2026/05/31 15:57:58:406',5,0.511546,0.500769,0,0.5,0.5,0.05
3464,'2026/05/31 15:57:58:439',5,0.511245,0.50171,0,0.5,0.5,0.05
3465,'2026/05/31 15:57:58:472',5,0.511097,0.502049,0,0.5,0.5,0.05
3466,'2026/05/31 15:57:58:505',5,0.510365,0.500365,0,0.5,0.5,0.05
3467,'2026/05/31 15:57:58:539',5,0.510469,0.500917,0,0.5,0.5,0.05
3468,'2026/05/31 15:57:58:573',5,0.510421,0.500867,0,0.5,0.5,0.05
3469,'2026/05/31 15:57:58:606',5,0.511011,0.500585,0,0.5,0.5,0.05
3470,'2026/05/31 15:57:58:639',5,0.510834,0.501013,0,0.5,0.5,0.05
3471,'2026/05/31 15:57:58:672',5,0.511124,0.501855,0,0.5,0.5,0.05
3472,'2026/05/31 15:57:58:706',5,0.511277,0.502659,0,0.5,0.5,0.05
3473,'2026/05/31 15:57:58:739',5,0.511663,0.502542,0,0.5,0.5,0.05
3474,'2026/05/31 15:57:58:773',5,0.511766,0.502949,0,0.5,0.5,0.05
3475,'2026/05/31 15:57:58:806',5,0.511917,0.502832,0,0.5,0.5,0.05
3476,'2026/05/31 15:57:58:839',5,0.511943,0.503132,0,0.5,0.5,0.05
3477,'2026/05/31 15:57:58:871',5,0.512196,0.502766,0,0.5,0.5,0.05
3478,'2026/05/31 15:57:58:905',5,0.512228,0.502784,0,0.5,0.5,0.05
3479,'2026/05/31 15:57:58:939',5,0.512277,0.503004,0,0.5,0.5,0.05
3480,'2026/05/31 15:57:58:972',5,0.512864,0.503777,0,0.5,0.5,0.05
3481,'2026/05/31 15:57:59:008',5,0.512661,0.503218,0,0.5,0.5,0.05
3482,'2026/05/31 15:57:59:040',5,0.512662,0.502469,0,0.5,0.5,0.05
3483,'2026/05/31 15:57:59:073',5,0.512637,0.502724,0,0.5,0.5,0.05
3484,'2026/05/31 15:57:59:109',5,0.512463,0.502849,0,0.5,0.5,0.05
3485,'2026/05/31 15:57:59:142',5,0.51224,0.503178,0,0.5,0.5,0.05
3486,'2026/05/31 15:57:59:177',5,0.512335,0.504353,0,0.5,0.5,0.05
3487,'2026/05/31 15:57:59:208',5,0.512321,0.504388,0,0.5,0.5,0.05
3488,'2026/05/31 15:57:59:244',5,0.512348,0.504398,0,0.5,0.5,0.05
3489,'2026/05/31 15:57:59:275',5,0.512333,0.504706,0,0.5,0.5,0.05
3490,'2026/05/31 15:57:59:311',5,0.512395,0.504942,0,0.5,0.5,0.05
3491,'2026/05/31 15:57:59:341',5,0.512313,0.504591,0,0.5,0.5,0.05
3492,'2026/05/31 15:57:59:376',5,0.512478,0.50454,0,0.5,0.5,0.05
3493,'2026/05/31 15:57:59:410',5,0.512628,0.503657,0,0.5,0.5,0.05
3494,'2026/05/31 15:57:59:442',5,0.512773,0.50303,0,0.5,0.5,0.05
3495,'2026/05/31 15:57:59:477',5,0.51284,0.502899,0,0.5,0.5,0.05
3496,'2026/05/31 15:57:59:508',5,0.513015,0.503658,0,0.5,0.5,0.05
3497,'2026/05/31 15:57:59:543',5,0.513382,0.503742,0,0.5,0.5,0.05
3498,'2026/05/31 15:57:59:576',5,0.51387,0.503693,0,0.5,0.5,0.05
3499,'2026/05/31 15:57:59:610',5,0.513943,0.503929,0,0.5,0.5,0.05
3500,'2026/05/31 15:57:59:643',5,0.514161,0.504058,0,0.5,0.5,0.05
3501,'2026/05/31 15:57:59:675',5,0.514164,0.503711,0,0.5,0.5,0.05
3502,'2026/05/31 15:57:59:709',5,0.514125,0.503562,0,0.5,0.5,0.05
3503,'2026/05/31 15:57:59:742',5,0.514191,0.503393,0,0.5,0.5,0.05
3504,'2026/05/31 15:57:59:775',5,0.514138,0.503123,0,0.5,0.5,0.05
3505,'2026/05/31 15:57:59:810',5,0.514106,0.503161,0,0.5,0.5,0.05
3506,'2026/05/31 15:57:59:842',5,0.514073,0.502982,0,0.5,0.5,0.05
3507,'2026/05/31 15:57:59:878',5,0.51402,0.50311,0,0.5,0.5,0.05
3508,'2026/05/31 15:57:59:908',5,0.513858,0.501934,0,0.5,0.5,0.05
3509,'2026/05/31 15:57:59:943',5,0.514364,0.502253,0,0.5,0.5,0.05
3510,'2026/05/31 15:57:59:976',5,0.513933,0.501728,0,0.5,0.5,0.05
3511,'2026/05/31 15:58:00:010',5,0.514217,0.5019,0,0.5,0.5,0.05
3512,'2026/05/31 15:58:00:042',5,0.514553,0.50239,0,0.5,0.5,0.05
3513,'2026/05/31 15:58:00:076',5,0.514658,0.502595,0,0.5,0.5,0.05
3514,'2026/05/31 15:58:00:110',5,0.514771,0.501908,0,0.5,0.5,0.05
3515,'2026/05/31 15:58:00:141',5,0.515079,0.5023,0,0.5,0.5,0.05
3516,'2026/05/31 15:58:00:175',5,0.515195,0.502569,0,0.5,0.5,0.05
3517,'2026/05/31 15:58:00:210',5,0.514885,0.502478,0,0.5,0.5,0.05
3518,'2026/05/31 15:58:00:243',5,0.515553,0.50273,0,0.5,0.5,0.05
3519,'2026/05/31 15:58:00:277',5,0.515207,0.502444,0,0.5,0.5,0.05
3520,'2026/05/31 15:58:00:307',5,0.515059,0.50229,0,0.5,0.5,0.05
3521,'2026/05/31 15:58:00:339',5,0.515305,0.50265,0,0.5,0.5,0.05
3522,'2026/05/31 15:58:00:372',5,0.514322,0.502875,0,0.5,0.5,0.05
3523,'2026/05/31 15:58:00:406',5,0.514628,0.503765,0,0.5,0.5,0.05
3524,'2026/05/31 15:58:00:440',5,0.514592,0.503157,0,0.5,0.5,0.05
3525,'2026/05/31 15:58:00:471',5,0.514735,0.503005,0,0.5,0.5,0.05
3526,'2026/05/31 15:58:00:506',5,0.514777,0.503203,0,0.5,0.5,0.05
3527,'2026/05/31 15:58:00:539',5,0.514764,0.502621,0,0.5,0.5,0.05
3528,'2026/05/31 15:58:00:572',5,0.514833,0.502666,0,0.5,0.5,0.05
3529,'2026/05/31 15:58:00:606',5,0.514787,0.502976,0,0.5,0.5,0.05
3530,'2026/05/31 15:58:00:641',5,0.514634,0.503447,0,0.5,0.5,0.05
3531,'2026/05/31 15:58:00:670',5,0.513931,0.503412,0,0.5,0.5,0.05
3532,'2026/05/31 15:58:00:705',5,0.513838,0.502508,0,0.5,0.5,0.05
3533,'2026/05/31 15:58:00:744',5,0.51362,0.503649,0,0.5,0.5,0.05
3534,'2026/05/31 15:58:00:774',5,0.512726,0.503462,0,0.5,0.5,0.05
3535,'2026/05/31 15:58:00:808',5,0.512816,0.503154,0,0.5,0.5,0.05
3536,'2026/05/31 15:58:00:842',5,0.51359,0.502666,0,0.5,0.5,0.05
3537,'2026/05/31 15:58:00:875',5,0.51351,0.5073,0,0.5,0.5,0.05
3538,'2026/05/31 15:58:00:909',5,0.512585,0.506253,0,0.5,0.5,0.05
3539,'2026/05/31 15:58:00:941',5,0.511317,0.505082,0,0.5,0.5,0.05
3540,'2026/05/31 15:58:00:975',5,0.510893,0.506739,0,0.5,0.5,0.05
3541,'2026/05/31 15:58:01:009',5,0.510543,0.508063,0,0.5,0.5,0.05
3542,'2026/05/31 15:58:01:041',5,0.50917,0.506331,0,0.5,0.5,0.05
3543,'2026/05/31 15:58:01:075',5,0.50908,0.50719,0,0.5,0.5,0.05
3544,'2026/05/31 15:58:01:107',5,0.508652,0.506253,0,0.5,0.5,0.05
3545,'2026/05/31 15:58:01:142',5,0.508237,0.505117,0,0.5,0.5,0.05
3546,'2026/05/31 15:58:01:175',5,0.508218,0.506211,0,0.5,0.5,0.05
3547,'2026/05/31 15:58:01:208',5,0.508109,0.504914,0,0.5,0.5,0.05
3548,'2026/05/31 15:58:01:241',5,0.508247,0.505233,0,0.5,0.5,0.05
3549,'2026/05/31 15:58:01:275',5,0.508186,0.504955,0,0.5,0.5,0.05
3550,'2026/05/31 15:58:01:309',5,0.508236,0.505242,0,0.5,0.5,0.05
3551,'2026/05/31 15:58:01:343',5,0.508487,0.506186,0,0.5,0.5,0.05
3552,'2026/05/31 15:58:01:378',5,0.508467,0.506091,0,0.5,0.5,0.05
3553,'2026/05/31 15:58:01:408',5,0.508367,0.506417,0,0.5,0.5,0.05
3554,'2026/05/31 15:58:01:444',5,0.508444,0.505759,0,0.5,0.5,0.05
3555,'2026/05/31 15:58:01:477',5,0.508284,0.506551,0,0.5,0.5,0.05
3556,'2026/05/31 15:58:01:510',5,0.50835,0.506481,0,0.5,0.5,0.05
3557,'2026/05/31 15:58:01:542',5,0.508274,0.506992,0,0.5,0.5,0.05
3558,'2026/05/31 15:58:01:576',5,0.508444,0.506627,0,0.5,0.5,0.05
3559,'2026/05/31 15:58:01:610',5,0.508088,0.506838,0,0.5,0.5,0.05
3560,'2026/05/31 15:58:01:642',5,0.508332,0.506116,0,0.5,0.5,0.05
3561,'2026/05/31 15:58:01:675',5,0.507586,0.506077,0,0.5,0.5,0.05
3562,'2026/05/31 15:58:01:709',5,0.507719,0.506074,0,0.5,0.5,0.05
3563,'2026/05/31 15:58:01:744',5,0.50792,0.506183,0,0.5,0.5,0.05
3564,'2026/05/31 15:58:01:777',5,0.507701,0.507397,0,0.5,0.5,0.05
3565,'2026/05/31 15:58:01:809',5,0.50768,0.505993,0,0.5,0.5,0.05
3566,'2026/05/31 15:58:01:844',5,0.507705,0.506936,0,0.5,0.5,0.05
3567,'2026/05/31 15:58:01:876',5,0.507683,0.507222,0,0.5,0.5,0.05
3568,'2026/05/31 15:58:01:911',5,0.507882,0.506991,0,0.5,0.5,0.05
3569,'2026/05/31 15:58:01:943',5,0.507486,0.506264,0,0.5,0.5,0.05
3570,'2026/05/31 15:58:01:977',5,0.507413,0.506357,0,0.5,0.5,0.05
3571,'2026/05/31 15:58:02:010',5,0.507438,0.507205,0,0.5,0.5,0.05
3572,'2026/05/31 15:58:02:043',5,0.507588,0.506162,0,0.5,0.5,0.05
3573,'2026/05/31 15:58:02:077',5,0.507968,0.506878,0,0.5,0.5,0.05
3574,'2026/05/31 15:58:02:108',5,0.507945,0.506723,0,0.5,0.5,0.05
3575,'2026/05/31 15:58:02:142',5,0.507817,0.505897,0,0.5,0.5,0.05
3576,'2026/05/31 15:58:02:176',5,0.507743,0.506314,0,0.5,0.5,0.05
3577,'2026/05/31 15:58:02:210',5,0.507623,0.505587,0,0.5,0.5,0.05
3578,'2026/05/31 15:58:02:243',5,0.507289,0.505632,0,0.5,0.5,0.05
3579,'2026/05/31 15:58:02:275',5,0.507519,0.506127,0,0.5,0.5,0.05
3580,'2026/05/31 15:58:02:307',5,0.507027,0.505122,0,0.5,0.5,0.05
3581,'2026/05/31 15:58:02:342',5,0.507023,0.504792,0,0.5,0.5,0.05
3582,'2026/05/31 15:58:02:373',5,0.506711,0.505869,0,0.5,0.5,0.05
3583,'2026/05/31 15:58:02:410',5,0.506586,0.505268,0,0.5,0.5,0.05
3584,'2026/05/31 15:58:02:441',5,0.506565,0.505864,0,0.5,0.5,0.05
3585,'2026/05/31 15:58:02:477',5,0.506629,0.50548,0,0.5,0.5,0.05
3586,'2026/05/31 15:58:02:507',5,0.506589,0.505116,0,0.5,0.5,0.05
3587,'2026/05/31 15:58:02:543',5,0.506807,0.505282,0,0.5,0.5,0.05
3588,'2026/05/31 15:58:02:605',5,0.506528,0.505786,0,0.5,0.5,0.05
3589,'2026/05/31 15:58:02:640',5,0.506363,0.506719,0,0.5,0.5,0.05
3590,'2026/05/31 15:58:02:677',5,0.506461,0.505699,0,0.5,0.5,0.05
3591,'2026/05/31 15:58:02:710',5,0.506516,0.505383,0,0.5,0.5,0.05
3592,'2026/05/31 15:58:02:741',5,0.50685,0.506466,0,0.5,0.5,0.05
3593,'2026/05/31 15:58:02:774',5,0.5067,0.505924,0,0.5,0.5,0.05
3594,'2026/05/31 15:58:02:809',5,0.506061,0.505279,0,0.5,0.5,0.05
3595,'2026/05/31 15:58:02:843',5,0.506305,0.504882,0,0.5,0.5,0.05
3596,'2026/05/31 15:58:02:876',5,0.505873,0.504235,0,0.5,0.5,0.05
3597,'2026/05/31 15:58:02:908',5,0.506014,0.504326,0,0.5,0.5,0.05
3598,'2026/05/31 15:58:02:942',5,0.505852,0.504101,0,0.5,0.5,0.05
3599,'2026/05/31 15:58:02:976',5,0.505718,0.504043,0,0.5,0.5,0.05
3600,'2026/05/31 15:58:03:008',5,0.50571,0.505898,0,0.5,0.5,0.05
3601,'2026/05/31 15:58:03:043',5,0.505714,0.50595,0,0.5,0.5,0.05
3602,'2026/05/31 15:58:03:076',5,0.5059,0.506,0,0.5,0.5,0.05
3603,'2026/05/31 15:58:03:109',5,0.506545,0.505624,0,0.5,0.5,0.05
3604,'2026/05/31 15:58:03:141',5,0.506817,0.505439,0,0.5,0.5,0.05
3605,'2026/05/31 15:58:03:175',5,0.507039,0.506513,0,0.5,0.5,0.05
3606,'2026/05/31 15:58:03:208',5,0.507539,0.507047,0,0.5,0.5,0.05
3607,'2026/05/31 15:58:03:243',5,0.507232,0.507333,0,0.5,0.5,0.05
3608,'2026/05/31 15:58:03:275',5,0.507481,0.508794,0,0.5,0.5,0.05
3609,'2026/05/31 15:58:03:307',5,0.507571,0.510194,0,0.5,0.5,0.05
3610,'2026/05/31 15:58:03:342',5,0.5079,0.510863,0,0.5,0.5,0.05
3611,'2026/05/31 15:58:03:375',5,0.507572,0.511369,0,0.5,0.5,0.05
3612,'2026/05/31 15:58:03:411',5,0.50771,0.510826,0,0.5,0.5,0.05
3613,'2026/05/31 15:58:03:443',5,0.508112,0.510849,0,0.5,0.5,0.05
3614,'2026/05/31 15:58:03:476',5,0.508718,0.511004,0,0.5,0.5,0.05
3615,'2026/05/31 15:58:03:507',5,0.508776,0.511089,0,0.5,0.5,0.05
3616,'2026/05/31 15:58:03:542',5,0.508632,0.51117,0,0.5,0.5,0.05
3617,'2026/05/31 15:58:03:576',5,0.50884,0.510406,0,0.5,0.5,0.05
3618,'2026/05/31 15:58:03:610',5,0.508412,0.511099,0,0.5,0.5,0.05
3619,'2026/05/31 15:58:03:643',5,0.508241,0.51137,0,0.5,0.5,0.05
3620,'2026/05/31 15:58:03:678',5,0.50841,0.511389,0,0.5,0.5,0.05
3621,'2026/05/31 15:58:03:708',5,0.508491,0.510962,0,0.5,0.5,0.05
3622,'2026/05/31 15:58:03:742',5,0.508457,0.511282,0,0.5,0.5,0.05
3623,'2026/05/31 15:58:03:776',5,0.508315,0.511298,0,0.5,0.5,0.05
3624,'2026/05/31 15:58:03:810',5,0.508314,0.511074,0,0.5,0.5,0.05
3625,'2026/05/31 15:58:03:843',5,0.508364,0.510843,0,0.5,0.5,0.05
3626,'2026/05/31 15:58:03:877',5,0.508229,0.511062,0,0.5,0.5,0.05
3627,'2026/05/31 15:58:03:910',5,0.508394,0.511665,0,0.5,0.5,0.05
3628,'2026/05/31 15:58:03:942',5,0.508368,0.512015,0,0.5,0.5,0.05
3629,'2026/05/31 15:58:03:976',5,0.508336,0.511759,0,0.5,0.5,0.05
3630,'2026/05/31 15:58:04:010',5,0.508262,0.511909,0,0.5,0.5,0.05
3631,'2026/05/31 15:58:04:043',5,0.508169,0.512,0,0.5,0.5,0.05
3632,'2026/05/31 15:58:04:077',5,0.508568,0.511951,0,0.5,0.5,0.05
3633,'2026/05/31 15:58:04:110',5,0.508226,0.51202,0,0.5,0.5,0.05
3634,'2026/05/31 15:58:04:143',5,0.508032,0.510988,0,0.5,0.5,0.05
3635,'2026/05/31 15:58:04:176',5,0.508296,0.511342,0,0.5,0.5,0.05
3636,'2026/05/31 15:58:04:209',5,0.508555,0.511444,0,0.5,0.5,0.05
3637,'2026/05/31 15:58:04:243',5,0.508531,0.512161,0,0.5,0.5,0.05
3638,'2026/05/31 15:58:04:277',5,0.507986,0.51286,0,0.5,0.5,0.05
3639,'2026/05/31 15:58:04:310',5,0.508824,0.51483,0,0.5,0.5,0.05
3640,'2026/05/31 15:58:04:343',5,0.509193,0.51465,0,0.5,0.5,0.05
3641,'2026/05/31 15:58:04:377',5,0.509271,0.514828,0,0.5,0.5,0.05
3642,'2026/05/31 15:58:04:408',5,0.510315,0.514642,0,0.5,0.5,0.05
3643,'2026/05/31 15:58:04:443',5,0.510352,0.514864,0,0.5,0.5,0.05
3644,'2026/05/31 15:58:04:477',5,0.510098,0.515026,0,0.5,0.5,0.05
3645,'2026/05/31 15:58:04:510',5,0.50992,0.514558,0,0.5,0.5,0.05
3646,'2026/05/31 15:58:04:543',5,0.509741,0.515465,0,0.5,0.5,0.05
3647,'2026/05/31 15:58:04:576',5,0.509801,0.515535,0,0.5,0.5,0.05
3648,'2026/05/31 15:58:04:611',5,0.5095,0.515609,0,0.5,0.5,0.05
3649,'2026/05/31 15:58:04:643',5,0.509298,0.51441,0,0.5,0.5,0.05
3650,'2026/05/31 15:58:04:678',5,0.508902,0.515611,0,0.5,0.5,0.05
3651,'2026/05/31 15:58:04:710',5,0.509152,0.51464,0,0.5,0.5,0.05
3652,'2026/05/31 15:58:04:743',5,0.508495,0.514204,0,0.5,0.5,0.05
3653,'2026/05/31 15:58:04:775',5,0.508952,0.513815,0,0.5,0.5,0.05
3654,'2026/05/31 15:58:04:808',5,0.508823,0.512327,0,0.5,0.5,0.05
3655,'2026/05/31 15:58:04:842',5,0.50845,0.513332,0,0.5,0.5,0.05
3656,'2026/05/31 15:58:04:875',5,0.508546,0.513272,0,0.5,0.5,0.05
3657,'2026/05/31 15:58:04:911',5,0.508303,0.5126,0,0.5,0.5,0.05
3658,'2026/05/31 15:58:04:943',5,0.509133,0.511732,0,0.5,0.5,0.05
3659,'2026/05/31 15:58:04:978',5,0.508587,0.511651,0,0.5,0.5,0.05
3660,'2026/05/31 15:58:05:010',5,0.508595,0.512887,0,0.5,0.5,0.05
3661,'2026/05/31 15:58:05:043',5,0.508341,0.511909,0,0.5,0.5,0.05
3662,'2026/05/31 15:58:05:077',5,0.5092,0.51176,0,0.5,0.5,0.05
3663,'2026/05/31 15:58:05:110',5,0.509012,0.512816,0,0.5,0.5,0.05
3664,'2026/05/31 15:58:05:142',5,0.509552,0.512323,0,0.5,0.5,0.05
3665,'2026/05/31 15:58:05:176',5,0.509321,0.512411,0,0.5,0.5,0.05
3666,'2026/05/31 15:58:05:209',5,0.510043,0.513136,0,0.5,0.5,0.05
3667,'2026/05/31 15:58:05:243',5,0.50981,0.511507,0,0.5,0.5,0.05
3668,'2026/05/31 15:58:05:277',5,0.509768,0.513179,0,0.5,0.5,0.05
3669,'2026/05/31 15:58:05:311',5,0.509722,0.510645,0,0.5,0.5,0.05
3670,'2026/05/31 15:58:05:343',5,0.510009,0.512262,0,0.5,0.5,0.05
3671,'2026/05/31 15:58:05:377',5,0.510159,0.511172,0,0.5,0.5,0.05
3672,'2026/05/31 15:58:05:410',5,0.510116,0.511247,0,0.5,0.5,0.05
3673,'2026/05/31 15:58:05:444',5,0.510241,0.511318,0,0.5,0.5,0.05
3674,'2026/05/31 15:58:05:478',5,0.510333,0.511298,0,0.5,0.5,0.05
3675,'2026/05/31 15:58:05:509',5,0.509958,0.510912,0,0.5,0.5,0.05
3676,'2026/05/31 15:58:05:543',5,0.510486,0.512037,0,0.5,0.5,0.05
3677,'2026/05/31 15:58:05:577',5,0.510475,0.510826,0,0.5,0.5,0.05
3678,'2026/05/31 15:58:05:611',5,0.510802,0.511069,0,0.5,0.5,0.05
3679,'2026/05/31 15:58:05:643',5,0.510894,0.509458,0,0.5,0.5,0.05
3680,'2026/05/31 15:58:05:677',5,0.510983,0.51079,0,0.5,0.5,0.05
3681,'2026/05/31 15:58:05:709',5,0.511065,0.509644,0,0.5,0.5,0.05
3682,'2026/05/31 15:58:05:742',5,0.51081,0.509672,0,0.5,0.5,0.05
3683,'2026/05/31 15:58:05:777',5,0.510894,0.510095,0,0.5,0.5,0.05
3684,'2026/05/31 15:58:05:810',5,0.511056,0.510057,0,0.5,0.5,0.05
3685,'2026/05/31 15:58:05:845',5,0.5112,0.510005,0,0.5,0.5,0.05
3686,'2026/05/31 15:58:05:877',5,0.511236,0.509407,0,0.5,0.5,0.05
3687,'2026/05/31 15:58:05:911',5,0.511525,0.508925,0,0.5,0.5,0.05
3688,'2026/05/31 15:58:05:944',5,0.511652,0.509772,0,0.5,0.5,0.05
3689,'2026/05/31 15:58:05:977',5,0.512266,0.510116,0,0.5,0.5,0.05
3690,'2026/05/31 15:58:06:009',5,0.512861,0.51035,0,0.5,0.5,0.05
3691,'2026/05/31 15:58:06:040',5,0.51344,0.509633,0,0.5,0.5,0.05
3692,'2026/05/31 15:58:06:075',5,0.514595,0.510064,0,0.5,0.5,0.05
3693,'2026/05/31 15:58:06:106',5,0.515522,0.509653,0,0.5,0.5,0.05
3694,'2026/05/31 15:58:06:138',5,0.516091,0.509679,0,0.5,0.5,0.05
3695,'2026/05/31 15:58:06:175',5,0.517331,0.509357,0,0.5,0.5,0.05
3696,'2026/05/31 15:58:06:206',5,0.517801,0.509568,0,0.5,0.5,0.05
3697,'2026/05/31 15:58:06:239',5,0.517691,0.511273,0,0.5,0.5,0.05
3698,'2026/05/31 15:58:31:012',6,0.501026,0.478656,1,0.5,0.5,1
3699,'2026/05/31 15:58:31:046',6,0.501184,0.477935,1,0.5,0.5,1
3700,'2026/05/31 15:58:31:081',6,0.500921,0.47692,1,0.5,0.5,1
3701,'2026/05/31 15:58:31:111',6,0.500532,0.478619,1,0.5,0.5,1
3702,'2026/05/31 15:58:31:147',6,0.501048,0.477766,1,0.5,0.5,1
3703,'2026/05/31 15:58:31:179',6,0.500873,0.476364,1,0.5,0.5,1
3704,'2026/05/31 15:58:31:214',6,0.50061,0.476376,1,0.5,0.5,1
3705,'2026/05/31 15:58:31:245',6,0.501764,0.476392,1,0.5,0.5,1
3706,'2026/05/31 15:58:31:280',6,0.502934,0.475841,1,0.5,0.5,1
3707,'2026/05/31 15:58:31:313',6,0.504468,0.474433,1,0.5,0.5,1
3708,'2026/05/31 15:58:31:345',6,0.505106,0.475802,1,0.5,0.5,1
3709,'2026/05/31 15:58:31:379',6,0.50482,0.476435,1,0.5,0.5,1
3710,'2026/05/31 15:58:31:412',6,0.505646,0.47575,0.994363,0.5,0.5,1
3711,'2026/05/31 15:58:31:447',6,0.505672,0.47686,0.999526,0.5,0.5,1
3712,'2026/05/31 15:58:31:479',6,0.506054,0.47705,1,0.5,0.5,1
3713,'2026/05/31 15:58:31:514',6,0.506805,0.476148,1,0.5,0.5,1
3714,'2026/05/31 15:58:31:546',6,0.5067,0.476456,0.999836,0.5,0.5,1
3715,'2026/05/31 15:58:31:578',6,0.506691,0.477411,1,0.5,0.5,1
3716,'2026/05/31 15:58:31:613',6,0.506783,0.476977,1,0.5,0.5,1
3717,'2026/05/31 15:58:31:645',6,0.505902,0.476389,1,0.5,0.5,1
3718,'2026/05/31 15:58:31:680',6,0.50526,0.476864,1,0.5,0.5,1
3719,'2026/05/31 15:58:31:712',6,0.505113,0.477172,1,0.5,0.5,1
3720,'2026/05/31 15:58:31:747',6,0.505477,0.475957,1,0.5,0.5,1
3721,'2026/05/31 15:58:31:780',6,0.505777,0.476243,1,0.5,0.5,1
3722,'2026/05/31 15:58:31:812',6,0.505673,0.477338,1,0.5,0.5,1
3723,'2026/05/31 15:58:31:848',6,0.505673,0.476764,1,0.5,0.5,1
3724,'2026/05/31 15:58:31:878',6,0.50428,0.477085,1,0.5,0.5,1
3725,'2026/05/31 15:58:31:915',6,0.504125,0.477711,1,0.5,0.5,1
3726,'2026/05/31 15:58:31:946',6,0.502712,0.478366,1,0.5,0.5,1
3727,'2026/05/31 15:58:31:980',6,0.502069,0.477782,1,0.5,0.5,1
3728,'2026/05/31 15:58:32:008',6,0.501186,0.477486,1,0.5,0.5,1
3729,'2026/05/31 15:58:32:042',6,0.500877,0.477214,1,0.5,0.5,1
3730,'2026/05/31 15:58:32:075',6,0.500301,0.476576,1,0.5,0.5,1
3731,'2026/05/31 15:58:32:109',6,0.500875,0.475983,1,0.5,0.5,1
3732,'2026/05/31 15:58:32:143',6,0.501059,0.475487,1,0.5,0.5,1
3733,'2026/05/31 15:58:32:176',6,0.501355,0.474866,1,0.5,0.5,1
3734,'2026/05/31 15:58:32:209',6,0.501821,0.474824,1,0.5,0.5,1
3735,'2026/05/31 15:58:32:243',6,0.502236,0.474686,1,0.5,0.5,1
3736,'2026/05/31 15:58:32:275',6,0.502326,0.476046,1,0.5,0.5,1
3737,'2026/05/31 15:58:32:309',6,0.502442,0.476805,1,0.5,0.5,1
3738,'2026/05/31 15:58:32:343',6,0.502073,0.476421,1,0.5,0.5,1
3739,'2026/05/31 15:58:32:376',6,0.501446,0.476622,1,0.5,0.5,1
3740,'2026/05/31 15:58:32:413',6,0.501398,0.476701,1,0.5,0.5,1
3741,'2026/05/31 15:58:32:443',6,0.501394,0.476629,1,0.5,0.5,1
3742,'2026/05/31 15:58:32:480',6,0.501233,0.476766,1,0.5,0.5,1
3743,'2026/05/31 15:58:32:511',6,0.501273,0.477116,1,0.5,0.5,1
3744,'2026/05/31 15:58:32:546',6,0.501031,0.477364,1,0.5,0.5,1
3745,'2026/05/31 15:58:32:576',6,0.501015,0.477734,1,0.5,0.5,1
3746,'2026/05/31 15:58:32:609',6,0.502077,0.477372,1,0.5,0.5,1
3747,'2026/05/31 15:58:32:642',6,0.501658,0.478663,1,0.5,0.5,1
3748,'2026/05/31 15:58:32:677',6,0.502266,0.47785,1,0.5,0.5,1
3749,'2026/05/31 15:58:32:712',6,0.502025,0.478022,1,0.5,0.5,1
3750,'2026/05/31 15:58:32:746',6,0.502382,0.47733,1,0.5,0.5,1
3751,'2026/05/31 15:58:32:778',6,0.502068,0.477683,1,0.5,0.5,1
3752,'2026/05/31 15:58:32:811',6,0.502551,0.477587,1,0.5,0.5,1
3753,'2026/05/31 15:58:32:845',6,0.502859,0.478822,1,0.5,0.5,1
3754,'2026/05/31 15:58:32:880',6,0.503562,0.478265,1,0.5,0.5,1
3755,'2026/05/31 15:58:32:910',6,0.503488,0.478356,1,0.5,0.5,1
3756,'2026/05/31 15:58:32:946',6,0.503698,0.478708,1,0.5,0.5,1
3757,'2026/05/31 15:58:32:978',6,0.503662,0.478142,1,0.5,0.5,1
3758,'2026/05/31 15:58:33:012',6,0.503568,0.478007,1,0.5,0.5,1
3759,'2026/05/31 15:58:33:046',6,0.502682,0.477915,1,0.5,0.5,1
3760,'2026/05/31 15:58:33:078',6,0.501596,0.477353,1,0.5,0.5,1
3761,'2026/05/31 15:58:33:114',6,0.501225,0.476649,1,0.5,0.5,1
3762,'2026/05/31 15:58:33:144',6,0.501199,0.476545,1,0.5,0.5,1
3763,'2026/05/31 15:58:33:180',6,0.502022,0.476711,1,0.5,0.5,1
3764,'2026/05/31 15:58:33:212',6,0.502606,0.477175,1,0.5,0.5,1
3765,'2026/05/31 15:58:33:245',6,0.502936,0.477835,1,0.5,0.5,1
3766,'2026/05/31 15:58:33:278',6,0.503057,0.478311,1,0.5,0.5,1
3767,'2026/05/31 15:58:33:311',6,0.502853,0.478785,1,0.5,0.5,1
3768,'2026/05/31 15:58:33:347',6,0.502696,0.478882,1,0.5,0.5,1
3769,'2026/05/31 15:58:33:378',6,0.50177,0.478467,1,0.5,0.5,1
3770,'2026/05/31 15:58:33:413',6,0.501622,0.47908,1,0.5,0.5,1
3771,'2026/05/31 15:58:33:445',6,0.501756,0.478842,1,0.5,0.5,1
3772,'2026/05/31 15:58:33:479',6,0.501887,0.478805,1,0.5,0.5,1
3773,'2026/05/31 15:58:33:512',6,0.501036,0.478069,1,0.5,0.5,1
3774,'2026/05/31 15:58:33:546',6,0.50045,0.478165,1,0.5,0.5,1
3775,'2026/05/31 15:58:33:580',6,0.49952,0.476662,1,0.5,0.5,1
3776,'2026/05/31 15:58:33:612',6,0.498721,0.476098,1,0.5,0.5,1
3777,'2026/05/31 15:58:33:646',6,0.497645,0.475771,1,0.5,0.5,1
3778,'2026/05/31 15:58:33:679',6,0.49688,0.47555,1,0.5,0.5,1
3779,'2026/05/31 15:58:33:714',6,0.495576,0.475692,1,0.5,0.5,1
3780,'2026/05/31 15:58:33:746',6,0.494999,0.476608,1,0.5,0.5,1
3781,'2026/05/31 15:58:33:780',6,0.494288,0.475902,1,0.5,0.5,1
3782,'2026/05/31 15:58:33:814',6,0.493674,0.476821,1,0.5,0.5,1
3783,'2026/05/31 15:58:33:845',6,0.493366,0.476504,1,0.5,0.5,1
3784,'2026/05/31 15:58:33:880',6,0.492722,0.476885,1,0.5,0.5,1
3785,'2026/05/31 15:58:33:912',6,0.492429,0.476325,1,0.5,0.5,1
3786,'2026/05/31 15:58:33:947',6,0.492441,0.475884,1,0.5,0.5,1
3787,'2026/05/31 15:58:33:980',6,0.491914,0.47581,1,0.5,0.5,1
3788,'2026/05/31 15:58:34:011',6,0.491787,0.476012,1,0.5,0.5,1
3789,'2026/05/31 15:58:34:047',6,0.491277,0.475872,1,0.5,0.5,1
3790,'2026/05/31 15:58:34:079',6,0.491512,0.475935,1,0.5,0.5,1
3791,'2026/05/31 15:58:34:114',6,0.491814,0.475917,1,0.5,0.5,1
3792,'2026/05/31 15:58:34:145',6,0.491922,0.475764,1,0.5,0.5,1
3793,'2026/05/31 15:58:34:180',6,0.492214,0.476452,1,0.5,0.5,1
3794,'2026/05/31 15:58:34:214',6,0.492243,0.476381,1,0.5,0.5,1
3795,'2026/05/31 15:58:34:245',6,0.493222,0.47678,1,0.5,0.5,1
3796,'2026/05/31 15:58:34:280',6,0.49373,0.4771,1,0.5,0.5,1
3797,'2026/05/31 15:58:34:312',6,0.494087,0.477112,1,0.5,0.5,1
3798,'2026/05/31 15:58:34:349',6,0.494805,0.477178,1,0.5,0.5,1
3799,'2026/05/31 15:58:34:379',6,0.495274,0.47681,1,0.5,0.5,1
3800,'2026/05/31 15:58:34:413',6,0.495455,0.477893,1,0.5,0.5,1
3801,'2026/05/31 15:58:34:448',6,0.496484,0.478112,1,0.5,0.5,1
3802,'2026/05/31 15:58:34:478',6,0.496903,0.478917,1,0.5,0.5,1
3803,'2026/05/31 15:58:34:511',6,0.496977,0.479322,1,0.5,0.5,1
3804,'2026/05/31 15:58:34:544',6,0.497376,0.479649,1,0.5,0.5,1
3805,'2026/05/31 15:58:34:578',6,0.497391,0.479378,1,0.5,0.5,1
3806,'2026/05/31 15:58:34:612',6,0.497615,0.479,1,0.5,0.5,1
3807,'2026/05/31 15:58:34:645',6,0.497946,0.479147,1,0.5,0.5,1
3808,'2026/05/31 15:58:34:679',6,0.497966,0.478948,1,0.5,0.5,1
3809,'2026/05/31 15:58:34:712',6,0.498386,0.479341,1,0.5,0.5,1
3810,'2026/05/31 15:58:34:744',6,0.499035,0.479736,1,0.5,0.5,1
3811,'2026/05/31 15:58:34:779',6,0.499279,0.47998,1,0.5,0.5,1
3812,'2026/05/31 15:58:34:812',6,0.499344,0.480085,1,0.5,0.5,1
3813,'2026/05/31 15:58:34:847',6,0.499583,0.479797,1,0.5,0.5,1
3814,'2026/05/31 15:58:34:878',6,0.499063,0.479388,1,0.5,0.5,1
3815,'2026/05/31 15:58:34:912',6,0.499017,0.479613,1,0.5,0.5,1
3816,'2026/05/31 15:58:34:946',6,0.498892,0.479639,1,0.5,0.5,1
3817,'2026/05/31 15:58:34:978',6,0.499126,0.480086,1,0.5,0.5,1
3818,'2026/05/31 15:58:35:011',6,0.49973,0.480065,1,0.5,0.5,1
3819,'2026/05/31 15:58:35:045',6,0.500086,0.481324,1,0.5,0.5,1
3820,'2026/05/31 15:58:35:080',6,0.500224,0.481736,1,0.5,0.5,1
3821,'2026/05/31 15:58:35:111',6,0.501052,0.481457,1,0.5,0.5,1
3822,'2026/05/31 15:58:35:146',6,0.50059,0.481245,1,0.5,0.5,1
3823,'2026/05/31 15:58:35:180',6,0.500464,0.481379,1,0.5,0.5,1
3824,'2026/05/31 15:58:35:211',6,0.500338,0.481176,1,0.5,0.5,1
3825,'2026/05/31 15:58:35:246',6,0.500514,0.48167,1,0.5,0.5,1
3826,'2026/05/31 15:58:35:278',6,0.500249,0.48189,1,0.5,0.5,1
3827,'2026/05/31 15:58:35:313',6,0.500283,0.482014,1,0.5,0.5,1
3828,'2026/05/31 15:58:35:346',6,0.500333,0.482315,1,0.5,0.5,1
3829,'2026/05/31 15:58:35:378',6,0.500602,0.48245,1,0.5,0.5,1
3830,'2026/05/31 15:58:35:412',6,0.500872,0.482839,1,0.5,0.5,1
3831,'2026/05/31 15:58:35:445',6,0.500731,0.482213,1,0.5,0.5,1
3832,'2026/05/31 15:58:35:480',6,0.500805,0.482878,1,0.5,0.5,1
3833,'2026/05/31 15:58:35:511',6,0.500406,0.48251,1,0.5,0.5,1
3834,'2026/05/31 15:58:35:547',6,0.500407,0.48332,1,0.5,0.5,1
3835,'2026/05/31 15:58:35:578',6,0.499854,0.482619,1,0.5,0.5,1
3836,'2026/05/31 15:58:35:613',6,0.498965,0.482703,1,0.5,0.5,1
3837,'2026/05/31 15:58:35:646',6,0.49858,0.48222,1,0.5,0.5,1
3838,'2026/05/31 15:58:35:680',6,0.498652,0.483235,1,0.5,0.5,1
3839,'2026/05/31 15:58:35:714',6,0.498521,0.483203,1,0.5,0.5,1
3840,'2026/05/31 15:58:35:745',6,0.498964,0.483604,1,0.5,0.5,1
3841,'2026/05/31 15:58:35:779',6,0.49946,0.483711,1,0.5,0.5,1
3842,'2026/05/31 15:58:35:812',6,0.499525,0.484447,1,0.5,0.5,1
3843,'2026/05/31 15:58:35:848',6,0.4998,0.484872,0.999883,0.5,0.5,1
3844,'2026/05/31 15:58:35:880',6,0.500235,0.485096,0.999166,0.5,0.5,1
3845,'2026/05/31 15:58:35:912',6,0.500005,0.485166,1,0.5,0.5,1
3846,'2026/05/31 15:58:35:947',6,0.500178,0.485396,1,0.5,0.5,1
3847,'2026/05/31 15:58:35:979',6,0.500125,0.484729,1,0.5,0.5,1
3848,'2026/05/31 15:58:36:013',6,0.500183,0.48513,1,0.5,0.5,1
3849,'2026/05/31 15:58:36:046',6,0.500485,0.484767,1,0.5,0.5,1
3850,'2026/05/31 15:58:36:080',6,0.500438,0.485446,0.999346,0.5,0.5,1
3851,'2026/05/31 15:58:36:114',6,0.500197,0.484013,1,0.5,0.5,1
3852,'2026/05/31 15:58:36:146',6,0.500231,0.484798,1,0.5,0.5,1
3853,'2026/05/31 15:58:36:181',6,0.499977,0.484606,1,0.5,0.5,1
3854,'2026/05/31 15:58:36:212',6,0.500191,0.484392,1,0.5,0.5,1
3855,'2026/05/31 15:58:36:248',6,0.500088,0.484836,1,0.5,0.5,1
3856,'2026/05/31 15:58:36:278',6,0.500221,0.485524,1,0.5,0.5,1
3857,'2026/05/31 15:58:36:309',6,0.500749,0.485802,1,0.5,0.5,1
3858,'2026/05/31 15:58:36:345',6,0.500482,0.484804,1,0.5,0.5,1
3859,'2026/05/31 15:58:36:376',6,0.50017,0.484985,1,0.5,0.5,1
3860,'2026/05/31 15:58:36:408',6,0.500215,0.485013,1,0.5,0.5,1
3861,'2026/05/31 15:58:36:444',6,0.500125,0.48447,1,0.5,0.5,1
3862,'2026/05/31 15:58:36:476',6,0.500402,0.484761,1,0.5,0.5,1
3863,'2026/05/31 15:58:36:511',6,0.500421,0.484691,1,0.5,0.5,1
3864,'2026/05/31 15:58:36:543',6,0.500333,0.484781,1,0.5,0.5,1
3865,'2026/05/31 15:58:36:577',6,0.500336,0.484812,1,0.5,0.5,1
3866,'2026/05/31 15:58:36:611',6,0.500064,0.484595,1,0.5,0.5,1
3867,'2026/05/31 15:58:36:643',6,0.500008,0.484853,1,0.5,0.5,1
3868,'2026/05/31 15:58:36:679',6,0.499961,0.484789,1,0.5,0.5,1
3869,'2026/05/31 15:58:36:715',6,0.499755,0.484619,1,0.5,0.5,1
3870,'2026/05/31 15:58:36:748',6,0.499623,0.484356,1,0.5,0.5,1
3871,'2026/05/31 15:58:36:780',6,0.499508,0.48417,1,0.5,0.5,1
3872,'2026/05/31 15:58:36:815',6,0.499636,0.484511,1,0.5,0.5,1
3873,'2026/05/31 15:58:36:846',6,0.49979,0.484722,1,0.5,0.5,1
3874,'2026/05/31 15:58:36:880',6,0.499421,0.484366,1,0.5,0.5,1
3875,'2026/05/31 15:58:36:913',6,0.499472,0.484476,1,0.5,0.5,1
3876,'2026/05/31 15:58:36:947',6,0.499283,0.484123,1,0.5,0.5,1
3877,'2026/05/31 15:58:36:980',6,0.499006,0.484586,1,0.5,0.5,1
3878,'2026/05/31 15:58:37:013',6,0.499067,0.484565,1,0.5,0.5,1
3879,'2026/05/31 15:58:37:049',6,0.49871,0.48372,1,0.5,0.5,1
3880,'2026/05/31 15:58:37:079',6,0.498426,0.483217,1,0.5,0.5,1
3881,'2026/05/31 15:58:37:115',6,0.498415,0.482815,1,0.5,0.5,1
3882,'2026/05/31 15:58:37:147',6,0.498093,0.482612,1,0.5,0.5,1
3883,'2026/05/31 15:58:37:181',6,0.498432,0.482335,1,0.5,0.5,1
3884,'2026/05/31 15:58:37:214',6,0.498296,0.482338,1,0.5,0.5,1
3885,'2026/05/31 15:58:37:245',6,0.498582,0.48238,1,0.5,0.5,1
3886,'2026/05/31 15:58:37:280',6,0.498631,0.482377,1,0.5,0.5,1
3887,'2026/05/31 15:58:37:312',6,0.49876,0.482027,1,0.5,0.5,1
3888,'2026/05/31 15:58:37:350',6,0.498028,0.481655,1,0.5,0.5,1
3889,'2026/05/31 15:58:37:381',6,0.498023,0.482128,1,0.5,0.5,1
3890,'2026/05/31 15:58:37:413',6,0.498002,0.482958,1,0.5,0.5,1
3891,'2026/05/31 15:58:37:448',6,0.497455,0.482905,1,0.5,0.5,1
3892,'2026/05/31 15:58:37:479',6,0.496948,0.482929,1,0.5,0.5,1
3893,'2026/05/31 15:58:37:515',6,0.496549,0.48294,1,0.5,0.5,1
3894,'2026/05/31 15:58:37:547',6,0.496878,0.482998,1,0.5,0.5,1
3895,'2026/05/31 15:58:37:581',6,0.496603,0.483052,1,0.5,0.5,1
3896,'2026/05/31 15:58:37:615',6,0.496839,0.483236,1,0.5,0.5,1
3897,'2026/05/31 15:58:37:645',6,0.496646,0.483016,1,0.5,0.5,1
3898,'2026/05/31 15:58:37:680',6,0.496636,0.483493,1,0.5,0.5,1
3899,'2026/05/31 15:58:37:713',6,0.496705,0.483079,1,0.5,0.5,1
3900,'2026/05/31 15:58:37:749',6,0.496881,0.483428,1,0.5,0.5,1
3901,'2026/05/31 15:58:37:781',6,0.497094,0.484269,1,0.5,0.5,1
3902,'2026/05/31 15:58:37:813',6,0.497066,0.485219,1,0.5,0.5,1
3903,'2026/05/31 15:58:37:848',6,0.49748,0.485642,1,0.5,0.5,1
3904,'2026/05/31 15:58:37:879',6,0.497402,0.485751,1,0.5,0.5,1
3905,'2026/05/31 15:58:37:914',6,0.497554,0.485459,1,0.5,0.5,1
3906,'2026/05/31 15:58:37:945',6,0.498085,0.484688,1,0.5,0.5,1
3907,'2026/05/31 15:58:37:982',6,0.497708,0.484974,1,0.5,0.5,1
3908,'2026/05/31 15:58:38:013',6,0.498186,0.485389,1,0.5,0.5,1
3909,'2026/05/31 15:58:38:046',6,0.498271,0.484661,1,0.5,0.5,1
3910,'2026/05/31 15:58:38:082',6,0.498509,0.484697,1,0.5,0.5,1
3911,'2026/05/31 15:58:38:112',6,0.498738,0.484945,1,0.5,0.5,1
3912,'2026/05/31 15:58:38:147',6,0.499128,0.485088,1,0.5,0.5,1
3913,'2026/05/31 15:58:38:179',6,0.499074,0.485086,1,0.5,0.5,1
3914,'2026/05/31 15:58:38:215',6,0.499264,0.485201,1,0.5,0.5,1
3915,'2026/05/31 15:58:38:248',6,0.49905,0.485486,1,0.5,0.5,1
3916,'2026/05/31 15:58:38:280',6,0.499288,0.485917,1,0.5,0.5,1
3917,'2026/05/31 15:58:38:315',6,0.499329,0.486187,1,0.5,0.5,1
3918,'2026/05/31 15:58:38:346',6,0.499243,0.486159,1,0.5,0.5,1
3919,'2026/05/31 15:58:38:382',6,0.49943,0.485931,1,0.5,0.5,1
3920,'2026/05/31 15:58:38:414',6,0.499225,0.4862,1,0.5,0.5,1
3921,'2026/05/31 15:58:38:447',6,0.499136,0.486438,1,0.5,0.5,1
3922,'2026/05/31 15:58:38:482',6,0.499281,0.486356,1,0.5,0.5,1
3923,'2026/05/31 15:58:38:512',6,0.499011,0.486287,1,0.5,0.5,1
3924,'2026/05/31 15:58:38:547',6,0.499151,0.485815,1,0.5,0.5,1
3925,'2026/05/31 15:58:38:579',6,0.498829,0.486112,1,0.5,0.5,1
3926,'2026/05/31 15:58:38:616',6,0.49841,0.485846,1,0.5,0.5,1
3927,'2026/05/31 15:58:38:647',6,0.498906,0.485687,1,0.5,0.5,1
3928,'2026/05/31 15:58:38:680',6,0.498667,0.485969,1,0.5,0.5,1
3929,'2026/05/31 15:58:38:715',6,0.498845,0.485431,1,0.5,0.5,1
3930,'2026/05/31 15:58:38:745',6,0.498992,0.485167,1,0.5,0.5,1
3931,'2026/05/31 15:58:38:780',6,0.498902,0.485605,1,0.5,0.5,1
3932,'2026/05/31 15:58:38:812',6,0.498826,0.485803,1,0.5,0.5,1
3933,'2026/05/31 15:58:38:849',6,0.498971,0.486233,1,0.5,0.5,1
3934,'2026/05/31 15:58:38:881',6,0.49919,0.485929,1,0.5,0.5,1
3935,'2026/05/31 15:58:38:914',6,0.498976,0.486356,1,0.5,0.5,1
3936,'2026/05/31 15:58:38:948',6,0.49959,0.485666,1,0.5,0.5,1
3937,'2026/05/31 15:58:38:979',6,0.499255,0.485911,1,0.5,0.5,1
3938,'2026/05/31 15:58:39:013',6,0.499515,0.485865,1,0.5,0.5,1
3939,'2026/05/31 15:58:39:046',6,0.499394,0.48572,1,0.5,0.5,1
3940,'2026/05/31 15:58:39:080',6,0.499473,0.48577,1,0.5,0.5,1
3941,'2026/05/31 15:58:39:114',6,0.499471,0.485683,1,0.5,0.5,1
3942,'2026/05/31 15:58:39:146',6,0.499409,0.485882,1,0.5,0.5,1
3943,'2026/05/31 15:58:39:182',6,0.499604,0.486006,1,0.5,0.5,1
3944,'2026/05/31 15:58:39:212',6,0.499633,0.486378,1,0.5,0.5,1
3945,'2026/05/31 15:58:39:248',6,0.499694,0.486442,1,0.5,0.5,1
3946,'2026/05/31 15:58:39:280',6,0.499608,0.486626,1,0.5,0.5,1
3947,'2026/05/31 15:58:39:314',6,0.498971,0.487278,1,0.5,0.5,1
3948,'2026/05/31 15:58:39:348',6,0.497842,0.48774,1,0.5,0.5,1
3949,'2026/05/31 15:58:39:379',6,0.49769,0.488449,1,0.5,0.5,1
3950,'2026/05/31 15:58:39:413',6,0.49659,0.488792,0.996328,0.5,0.5,1
3951,'2026/05/31 15:58:39:446',6,0.497341,0.48838,1,0.5,0.5,1
3952,'2026/05/31 15:58:39:482',6,0.497388,0.489061,0.997157,0.5,0.5,1
3953,'2026/05/31 15:58:39:515',6,0.497046,0.489382,0.995767,0.5,0.5,1
3954,'2026/05/31 15:58:39:547',6,0.497444,0.489051,0.997492,0.5,0.5,1
3955,'2026/05/31 15:58:39:582',6,0.497297,0.489119,0.997338,0.5,0.5,1
3956,'2026/05/31 15:58:39:612',6,0.497141,0.489537,0.99485,0.5,0.5,1
3957,'2026/05/31 15:58:39:646',6,0.496867,0.488957,0.996258,0.5,0.5,1
3958,'2026/05/31 15:58:39:680',6,0.496602,0.488525,1,0.5,0.5,1
3959,'2026/05/31 15:58:39:715',6,0.496403,0.488226,0.999424,0.5,0.5,1
3960,'2026/05/31 15:58:39:747',6,0.496169,0.487873,1,0.5,0.5,1
3961,'2026/05/31 15:58:39:779',6,0.49616,0.488264,1,0.5,0.5,1
3962,'2026/05/31 15:58:39:815',6,0.495976,0.488372,1,0.5,0.5,1
3963,'2026/05/31 15:58:39:846',6,0.496013,0.488793,1,0.5,0.5,1
3964,'2026/05/31 15:58:39:881',6,0.496175,0.489137,1,0.5,0.5,1
3965,'2026/05/31 15:58:39:913',6,0.496233,0.489634,0.996463,0.5,0.5,1
3966,'2026/05/31 15:58:39:948',6,0.495975,0.489887,0.995604,0.5,0.5,1
3967,'2026/05/31 15:58:39:982',6,0.495488,0.489639,1,0.5,0.5,1
3968,'2026/05/31 15:58:40:012',6,0.495324,0.490273,1,0.5,0.5,1
3969,'2026/05/31 15:58:40:048',6,0.495439,0.490008,1,0.5,0.5,1
3970,'2026/05/31 15:58:40:079',6,0.495357,0.489882,1,0.5,0.5,1
3971,'2026/05/31 15:58:40:115',6,0.495449,0.489951,1,0.5,0.5,1
3972,'2026/05/31 15:58:40:148',6,0.495528,0.489865,1,0.5,0.5,1
3973,'2026/05/31 15:58:40:181',6,0.495472,0.490382,1,0.5,0.5,1
3974,'2026/05/31 15:58:40:215',6,0.496025,0.490658,0.996827,0.5,0.5,1
3975,'2026/05/31 15:58:40:245',6,0.496077,0.490412,1,0.5,0.5,1
3976,'2026/05/31 15:58:40:276',6,0.496116,0.490542,1,0.5,0.5,1
3977,'2026/05/31 15:58:40:311',6,0.496149,0.491136,0.991891,0.5,0.5,1
3978,'2026/05/31 15:58:40:344',6,0.495965,0.490514,0.996935,0.5,0.5,1
3979,'2026/05/31 15:58:40:377',6,0.49588,0.490151,1,0.5,0.5,1
3980,'2026/05/31 15:58:40:410',6,0.495975,0.490663,1,0.5,0.5,1
3981,'2026/05/31 15:58:40:442',6,0.496511,0.491205,1,0.5,0.5,1
3982,'2026/05/31 15:58:40:476',6,0.496636,0.49173,0.999499,0.5,0.5,1
3983,'2026/05/31 15:58:40:510',6,0.496637,0.491859,0.997594,0.5,0.5,1
3984,'2026/05/31 15:58:40:543',6,0.496827,0.491777,1,0.5,0.5,1
3985,'2026/05/31 15:58:40:577',6,0.496745,0.49192,1,0.5,0.5,1
3986,'2026/05/31 15:58:40:610',6,0.496776,0.492077,1,0.5,0.5,1
3987,'2026/05/31 15:58:40:643',6,0.497278,0.49206,0.999665,0.5,0.5,1
3988,'2026/05/31 15:58:40:676',6,0.497702,0.491937,0.999062,0.5,0.5,1
3989,'2026/05/31 15:58:40:710',6,0.498246,0.492045,0.995138,0.5,0.5,1
3990,'2026/05/31 15:58:40:744',6,0.498488,0.491695,0.991803,0.5,0.5,1
3991,'2026/05/31 15:58:40:777',6,0.49847,0.490081,0.996874,0.5,0.5,1
3992,'2026/05/31 15:58:40:811',6,0.498506,0.489515,1,0.5,0.5,1
3993,'2026/05/31 15:58:40:844',6,0.498712,0.48936,0.999443,0.5,0.5,1
3994,'2026/05/31 15:58:40:876',6,0.498603,0.489016,1,0.5,0.5,1
3995,'2026/05/31 15:58:40:910',6,0.498832,0.488816,1,0.5,0.5,1
3996,'2026/05/31 15:58:40:944',6,0.498574,0.489248,1,0.5,0.5,1
3997,'2026/05/31 15:58:40:977',6,0.498872,0.489751,1,0.5,0.5,1
3998,'2026/05/31 15:58:41:010',6,0.498783,0.490787,1,0.5,0.5,1
3999,'2026/05/31 15:58:41:043',6,0.498738,0.491154,1,0.5,0.5,1
4000,'2026/05/31 15:58:41:077',6,0.498976,0.491787,0.999373,0.5,0.5,1
4001,'2026/05/31 15:58:41:110',6,0.498833,0.491484,1,0.5,0.5,1
4002,'2026/05/31 15:58:41:145',6,0.498761,0.491392,1,0.5,0.5,1
4003,'2026/05/31 15:58:41:177',6,0.498505,0.491172,1,0.5,0.5,1
4004,'2026/05/31 15:58:41:211',6,0.498107,0.491396,1,0.5,0.5,1
4005,'2026/05/31 15:58:41:244',6,0.497699,0.491432,0.998787,0.5,0.5,1
4006,'2026/05/31 15:58:41:277',6,0.497674,0.491501,0.998152,0.5,0.5,1
4007,'2026/05/31 15:58:41:310',6,0.497797,0.4915,0.9964,0.5,0.5,1
4008,'2026/05/31 15:58:41:348',6,0.497776,0.4917,0.989387,0.5,0.5,1
4009,'2026/05/31 15:58:41:381',6,0.497961,0.491766,0.993004,0.5,0.5,1
4010,'2026/05/31 15:58:41:415',6,0.497619,0.491464,1,0.5,0.5,1
4011,'2026/05/31 15:58:41:447',6,0.497348,0.491285,0.997394,0.5,0.5,1
4012,'2026/05/31 15:58:41:481',6,0.49743,0.491099,1,0.5,0.5,1
4013,'2026/05/31 15:58:41:513',6,0.496863,0.490942,1,0.5,0.5,1
4014,'2026/05/31 15:58:41:548',6,0.496508,0.491098,1,0.5,0.5,1
4015,'2026/05/31 15:58:41:580',6,0.496535,0.490915,1,0.5,0.5,1
4016,'2026/05/31 15:58:41:616',6,0.496417,0.490808,1,0.5,0.5,1
4017,'2026/05/31 15:58:41:649',6,0.496598,0.491174,0.9978,0.5,0.5,1
4018,'2026/05/31 15:58:41:680',6,0.496462,0.490998,1,0.5,0.5,1
4019,'2026/05/31 15:58:41:714',6,0.496519,0.491254,1,0.5,0.5,1
4020,'2026/05/31 15:58:41:746',6,0.496206,0.491053,0.995978,0.5,0.5,1
4021,'2026/05/31 15:58:41:783',6,0.496395,0.490723,1,0.5,0.5,1
4022,'2026/05/31 15:58:41:814',6,0.496136,0.490527,0.997677,0.5,0.5,1
4023,'2026/05/31 15:58:41:847',6,0.495503,0.490169,0.999295,0.5,0.5,1
4024,'2026/05/31 15:58:41:882',6,0.495616,0.490123,0.999194,0.5,0.5,1
4025,'2026/05/31 15:58:41:914',6,0.495634,0.489967,1,0.5,0.5,1
4026,'2026/05/31 15:58:41:948',6,0.496009,0.489722,1,0.5,0.5,1
4027,'2026/05/31 15:58:41:979',6,0.496285,0.48963,1,0.5,0.5,1
4028,'2026/05/31 15:58:42:016',6,0.49645,0.489694,1,0.5,0.5,1
4029,'2026/05/31 15:58:42:079',6,0.49658,0.490324,1,0.5,0.5,1
4030,'2026/05/31 15:58:42:116',6,0.496711,0.490174,1,0.5,0.5,1
4031,'2026/05/31 15:58:42:148',6,0.497019,0.490521,1,0.5,0.5,1
4032,'2026/05/31 15:58:42:182',6,0.497314,0.490788,1,0.5,0.5,1
4033,'2026/05/31 15:58:42:215',6,0.497535,0.490616,1,0.5,0.5,1
4034,'2026/05/31 15:58:42:248',6,0.497558,0.490873,1,0.5,0.5,1
4035,'2026/05/31 15:58:42:282',6,0.497685,0.490594,1,0.5,0.5,1
4036,'2026/05/31 15:58:42:314',6,0.497627,0.490592,1,0.5,0.5,1
4037,'2026/05/31 15:58:42:346',6,0.498049,0.490536,1,0.5,0.5,1
4038,'2026/05/31 15:58:42:380',6,0.497973,0.490524,1,0.5,0.5,1
4039,'2026/05/31 15:58:42:415',6,0.498066,0.489959,1,0.5,0.5,1
4040,'2026/05/31 15:58:42:448',6,0.497738,0.489202,1,0.5,0.5,1
4041,'2026/05/31 15:58:42:479',6,0.497756,0.489113,1,0.5,0.5,1
4042,'2026/05/31 15:58:42:511',6,0.497606,0.488984,1,0.5,0.5,1
4043,'2026/05/31 15:58:42:544',6,0.498139,0.489367,1,0.5,0.5,1
4044,'2026/05/31 15:58:42:578',6,0.498817,0.48882,1,0.5,0.5,1
4045,'2026/05/31 15:58:42:610',6,0.499442,0.488771,1,0.5,0.5,1
4046,'2026/05/31 15:58:42:645',6,0.499919,0.488551,1,0.5,0.5,1
4047,'2026/05/31 15:58:42:677',6,0.500539,0.489535,1,0.5,0.5,1
4048,'2026/05/31 15:58:42:709',6,0.501295,0.490508,1,0.5,0.5,1
4049,'2026/05/31 15:58:42:743',6,0.501042,0.48979,1,0.5,0.5,1
4050,'2026/05/31 15:58:42:778',6,0.500298,0.489471,1,0.5,0.5,1
4051,'2026/05/31 15:58:42:809',6,0.500843,0.489933,1,0.5,0.5,1
4052,'2026/05/31 15:58:42:844',6,0.501249,0.488871,1,0.5,0.5,1
4053,'2026/05/31 15:58:42:877',6,0.502419,0.488648,1,0.5,0.5,1
4054,'2026/05/31 15:58:42:916',6,0.5027,0.489457,1,0.5,0.5,1
4055,'2026/05/31 15:58:42:946',6,0.502782,0.488849,1,0.5,0.5,1
4056,'2026/05/31 15:58:42:980',6,0.502376,0.489079,0.993987,0.5,0.5,1
4057,'2026/05/31 15:58:43:013',6,0.50163,0.488757,0.993781,0.5,0.5,1
4058,'2026/05/31 15:58:43:046',6,0.501557,0.48793,1,0.5,0.5,1
4059,'2026/05/31 15:58:43:078',6,0.501507,0.488474,1,0.5,0.5,1
4060,'2026/05/31 15:58:43:111',6,0.501463,0.48934,1,0.5,0.5,1
4061,'2026/05/31 15:58:43:146',6,0.501332,0.489617,1,0.5,0.5,1
4062,'2026/05/31 15:58:43:179',6,0.501379,0.489773,1,0.5,0.5,1
4063,'2026/05/31 15:58:43:212',6,0.501844,0.490105,1,0.5,0.5,1
4064,'2026/05/31 15:58:43:246',6,0.501378,0.490431,1,0.5,0.5,1
4065,'2026/05/31 15:58:43:279',6,0.501416,0.490524,1,0.5,0.5,1
4066,'2026/05/31 15:58:43:313',6,0.501473,0.490381,1,0.5,0.5,1
4067,'2026/05/31 15:58:43:346',6,0.502314,0.490008,1,0.5,0.5,1
4068,'2026/05/31 15:58:43:380',6,0.502313,0.490217,1,0.5,0.5,1
4069,'2026/05/31 15:58:43:412',6,0.502446,0.490998,1,0.5,0.5,1
4070,'2026/05/31 15:58:43:447',6,0.502563,0.490926,1,0.5,0.5,1
4071,'2026/05/31 15:58:43:479',6,0.502827,0.491382,1,0.5,0.5,1
4072,'2026/05/31 15:58:43:512',6,0.503186,0.491404,0.997856,0.5,0.5,1
4073,'2026/05/31 15:58:43:546',6,0.503401,0.49132,1,0.5,0.5,1
4074,'2026/05/31 15:58:43:579',6,0.503148,0.492144,0.997076,0.5,0.5,1
4075,'2026/05/31 15:58:43:613',6,0.503139,0.491904,1,0.5,0.5,1
4076,'2026/05/31 15:58:43:643',6,0.502858,0.492118,0.994934,0.5,0.5,1
4077,'2026/05/31 15:58:43:681',6,0.503131,0.491921,0.994727,0.5,0.5,1
4078,'2026/05/31 15:58:43:716',6,0.50321,0.491397,1,0.5,0.5,1
4079,'2026/05/31 15:58:43:746',6,0.502853,0.491883,0.996588,0.5,0.5,1
4080,'2026/05/31 15:58:43:780',6,0.502884,0.491591,0.999453,0.5,0.5,1
4081,'2026/05/31 15:58:43:813',6,0.502645,0.491248,1,0.5,0.5,1
4082,'2026/05/31 15:58:43:847',6,0.502936,0.491072,1,0.5,0.5,1
4083,'2026/05/31 15:58:43:881',6,0.502438,0.49003,1,0.5,0.5,1
4084,'2026/05/31 15:58:43:914',6,0.502332,0.490593,1,0.5,0.5,1
4085,'2026/05/31 15:58:43:948',6,0.502044,0.490625,1,0.5,0.5,1
4086,'2026/05/31 15:58:43:981',6,0.501973,0.490033,1,0.5,0.5,1
4087,'2026/05/31 15:58:44:014',6,0.501559,0.49141,1,0.5,0.5,1
4088,'2026/05/31 15:58:44:047',6,0.501384,0.490899,1,0.5,0.5,1
4089,'2026/05/31 15:58:44:081',6,0.501099,0.490458,1,0.5,0.5,1
4090,'2026/05/31 15:58:44:115',6,0.501338,0.491679,1,0.5,0.5,1
4091,'2026/05/31 15:58:44:147',6,0.50078,0.490734,1,0.5,0.5,1
4092,'2026/05/31 15:58:44:181',6,0.501273,0.490669,1,0.5,0.5,1
4093,'2026/05/31 15:58:44:214',6,0.500781,0.491251,1,0.5,0.5,1
4094,'2026/05/31 15:58:44:248',6,0.500171,0.49177,1,0.5,0.5,1
4095,'2026/05/31 15:58:44:280',6,0.500401,0.491113,1,0.5,0.5,1
4096,'2026/05/31 15:58:44:314',6,0.500264,0.490973,1,0.5,0.5,1
4097,'2026/05/31 15:58:44:348',6,0.49993,0.490741,1,0.5,0.5,1
4098,'2026/05/31 15:58:44:381',6,0.500042,0.490949,1,0.5,0.5,1
4099,'2026/05/31 15:58:44:413',6,0.499848,0.491014,1,0.5,0.5,1
4100,'2026/05/31 15:58:44:446',6,0.499779,0.490955,1,0.5,0.5,1
4101,'2026/05/31 15:58:44:479',6,0.499702,0.491338,1,0.5,0.5,1
4102,'2026/05/31 15:58:44:513',6,0.49961,0.491392,1,0.5,0.5,1
4103,'2026/05/31 15:58:44:548',6,0.499565,0.491259,1,0.5,0.5,1
4104,'2026/05/31 15:58:44:582',6,0.498885,0.491319,1,0.5,0.5,1
4105,'2026/05/31 15:58:44:613',6,0.498954,0.491587,1,0.5,0.5,1
4106,'2026/05/31 15:58:44:648',6,0.49915,0.491619,1,0.5,0.5,1
4107,'2026/05/31 15:58:44:680',6,0.499176,0.491196,1,0.5,0.5,1
4108,'2026/05/31 15:58:44:712',6,0.499292,0.49162,1,0.5,0.5,1
4109,'2026/05/31 15:58:44:746',6,0.499184,0.491536,1,0.5,0.5,1
4110,'2026/05/31 15:58:44:779',6,0.499755,0.49146,1,0.5,0.5,1
4111,'2026/05/31 15:58:44:813',6,0.500546,0.490592,1,0.5,0.5,1
4112,'2026/05/31 15:58:44:846',6,0.50083,0.491255,1,0.5,0.5,1
4113,'2026/05/31 15:58:44:880',6,0.500934,0.491218,1,0.5,0.5,1
4114,'2026/05/31 15:58:44:912',6,0.500598,0.490997,1,0.5,0.5,1
4115,'2026/05/31 15:58:44:946',6,0.5007,0.49064,1,0.5,0.5,1
4116,'2026/05/31 15:58:44:979',6,0.500602,0.490668,1,0.5,0.5,1
4117,'2026/05/31 15:58:45:012',6,0.501296,0.490184,1,0.5,0.5,1
4118,'2026/05/31 15:58:45:047',6,0.501318,0.490368,1,0.5,0.5,1
4119,'2026/05/31 15:58:45:080',6,0.501899,0.490084,1,0.5,0.5,1
4120,'2026/05/31 15:58:45:113',6,0.502083,0.489561,1,0.5,0.5,1
4121,'2026/05/31 15:58:45:146',6,0.502456,0.489348,1,0.5,0.5,1
4122,'2026/05/31 15:58:45:179',6,0.502483,0.489181,1,0.5,0.5,1
4123,'2026/05/31 15:58:45:213',6,0.502922,0.488872,1,0.5,0.5,1
4124,'2026/05/31 15:58:45:246',6,0.502646,0.488137,1,0.5,0.5,1
4125,'2026/05/31 15:58:45:280',6,0.50274,0.488266,1,0.5,0.5,1
4126,'2026/05/31 15:58:45:313',6,0.502356,0.488279,1,0.5,0.5,1
4127,'2026/05/31 15:58:45:345',6,0.502283,0.488047,1,0.5,0.5,1
4128,'2026/05/31 15:58:45:379',6,0.50258,0.487717,1,0.5,0.5,1
4129,'2026/05/31 15:58:45:412',6,0.50318,0.487572,1,0.5,0.5,1
4130,'2026/05/31 15:58:45:447',6,0.502915,0.486476,1,0.5,0.5,1
4131,'2026/05/31 15:58:45:479',6,0.502967,0.485743,1,0.5,0.5,1
4132,'2026/05/31 15:58:45:513',6,0.502497,0.485914,1,0.5,0.5,1
4133,'2026/05/31 15:58:45:546',6,0.501778,0.485937,1,0.5,0.5,1
4134,'2026/05/31 15:58:45:579',6,0.501785,0.485899,1,0.5,0.5,1
4135,'2026/05/31 15:58:45:613',6,0.50135,0.486436,1,0.5,0.5,1
4136,'2026/05/31 15:58:45:646',6,0.501827,0.486854,1,0.5,0.5,1
4137,'2026/05/31 15:58:45:679',6,0.502268,0.488196,1,0.5,0.5,1
4138,'2026/05/31 15:58:45:713',6,0.501393,0.487602,1,0.5,0.5,1
4139,'2026/05/31 15:58:45:746',6,0.501575,0.488291,1,0.5,0.5,1
4140,'2026/05/31 15:58:45:780',6,0.501373,0.48867,1,0.5,0.5,1
4141,'2026/05/31 15:58:45:813',6,0.501662,0.489419,1,0.5,0.5,1
4142,'2026/05/31 15:58:45:847',6,0.501499,0.488558,1,0.5,0.5,1
4143,'2026/05/31 15:58:45:880',6,0.500885,0.48903,1,0.5,0.5,1
4144,'2026/05/31 15:58:45:914',6,0.501142,0.488654,1,0.5,0.5,1
4145,'2026/05/31 15:58:45:947',6,0.500927,0.488397,1,0.5,0.5,1
4146,'2026/05/31 15:58:45:981',6,0.501195,0.488465,1,0.5,0.5,1
4147,'2026/05/31 15:58:46:014',6,0.501848,0.488166,1,0.5,0.5,1
4148,'2026/05/31 15:58:46:048',6,0.501619,0.488161,1,0.5,0.5,1
4149,'2026/05/31 15:58:46:081',6,0.50173,0.487751,1,0.5,0.5,1
4150,'2026/05/31 15:58:46:114',6,0.501607,0.488968,1,0.5,0.5,1
4151,'2026/05/31 15:58:46:147',6,0.501932,0.488743,1,0.5,0.5,1
4152,'2026/05/31 15:58:46:180',6,0.50179,0.489049,1,0.5,0.5,1
4153,'2026/05/31 15:58:46:214',6,0.501191,0.488267,1,0.5,0.5,1
4154,'2026/05/31 15:58:46:248',6,0.50039,0.489351,1,0.5,0.5,1
4155,'2026/05/31 15:58:46:281',6,0.499835,0.48819,1,0.5,0.5,1
4156,'2026/05/31 15:58:46:313',6,0.498914,0.489036,1,0.5,0.5,1
4157,'2026/05/31 15:58:46:346',6,0.497563,0.48967,1,0.5,0.5,1
4158,'2026/05/31 15:58:46:378',6,0.497135,0.48962,1,0.5,0.5,1
4159,'2026/05/31 15:58:46:413',6,0.496705,0.488848,1,0.5,0.5,1
4160,'2026/05/31 15:58:46:447',6,0.496582,0.489902,1,0.5,0.5,1
4161,'2026/05/31 15:58:46:476',6,0.496245,0.489716,1,0.5,0.5,1
4162,'2026/05/31 15:58:46:509',6,0.496042,0.489284,1,0.5,0.5,1
4163,'2026/05/31 15:58:46:544',6,0.49547,0.489288,1,0.5,0.5,1
4164,'2026/05/31 15:58:46:578',6,0.495426,0.488961,1,0.5,0.5,1
4165,'2026/05/31 15:58:46:612',6,0.495357,0.488603,1,0.5,0.5,1
4166,'2026/05/31 15:58:46:644',6,0.495843,0.487178,1,0.5,0.5,1
4167,'2026/05/31 15:58:46:677',6,0.494481,0.488398,1,0.5,0.5,1
4168,'2026/05/31 15:58:46:711',6,0.495189,0.487692,1,0.5,0.5,1
4169,'2026/05/31 15:58:46:744',6,0.494613,0.488617,1,0.5,0.5,1
4170,'2026/05/31 15:58:46:782',6,0.49372,0.488968,1,0.5,0.5,1
4171,'2026/05/31 15:58:46:814',6,0.494409,0.489694,1,0.5,0.5,1
4172,'2026/05/31 15:58:46:847',6,0.492737,0.489519,1,0.5,0.5,1
4173,'2026/05/31 15:58:46:881',6,0.493204,0.489562,1,0.5,0.5,1
4174,'2026/05/31 15:58:46:914',6,0.493409,0.490152,1,0.5,0.5,1
4175,'2026/05/31 15:58:46:948',6,0.49355,0.49064,1,0.5,0.5,1
4176,'2026/05/31 15:58:46:981',6,0.493182,0.49211,1,0.5,0.5,1
4177,'2026/05/31 15:58:47:015',6,0.494075,0.492455,1,0.5,0.5,1
4178,'2026/05/31 15:58:47:048',6,0.495194,0.49263,1,0.5,0.5,1
4179,'2026/05/31 15:58:47:081',6,0.495914,0.493181,1,0.5,0.5,1
